23
Converted from n-heptane.vasp
C -10.6553358600 7.5034285833 6.3787659564
C -9.3299658301 8.1884638651 6.6989409669
C -8.1943730896 7.1664220601 6.8246284438
C -6.8645401390 7.8584632892 7.1463183561
C -5.7281938695 6.8368295769 7.2721936499
C -4.3990011117 7.5294656985 7.5938133862
C -3.2654269960 6.5158061718 7.7198839150
H -10.9269032885 6.7914132270 7.1870805787
H -10.5834873659 6.9550893129 5.4153091979
H -11.4572834460 8.2667367449 6.2938419776
H -9.4367522633 8.7497025859 7.6528642506
H -9.0948039121 8.9126853953 5.8886554437
H -8.0960028482 6.6065680573 5.8683073353
H -8.4382836935 6.4434237260 7.6342228979
H -6.9632406243 8.4184115467 8.1025351083
H -6.6209766771 8.5815440797 6.3367100292
H -5.6291352617 6.2768800483 6.3160002292
H -5.9714196059 6.1137442916 8.0819169601
H -4.4892741586 8.0884969770 8.5507331524
H -4.1473272934 8.2514793412 6.7865228700
H -3.1370194276 5.9599091927 6.7666906275
H -3.4804322631 5.7962303650 8.5384618619
H -2.3175161630 7.0452545637 7.9525239369
