61
Converted from solute_1.vasp
P 22.5106171555 19.8572059773 34.0398235725
O 20.8667884908 19.3040013994 33.9350956618
O 23.1669932883 18.9123829942 35.0824252444
O 22.4998245062 21.4113775515 34.8167467796
H 20.5097069503 19.3814209448 34.8556348151
H 21.9805506740 21.2794646378 35.6497214041
H 23.4579966911 18.7423443336 32.0687171306
H 24.5101416277 20.1001104256 32.6367541869
H 22.8215092986 21.7566556611 31.8005692538
H 21.7709528458 20.4009351686 31.2333862691
H 23.5947230923 19.6335956056 29.6899841357
H 24.6450954695 20.9890850718 30.2570682407
H 22.9496516308 22.6463312752 29.4359635749
H 21.8993465102 21.2909244280 28.8689126751
H 23.7233097624 20.5226838508 27.3268193831
H 24.7736187336 21.8780961576 27.8938726479
H 23.0781280236 23.5353539209 27.0729925289
H 22.0278222085 22.1799448420 26.5059398546
H 23.8517690965 21.4117273758 24.9638342921
H 24.9020767437 22.7671362222 25.5308880911
H 23.2065810633 24.4243964614 24.7100256185
H 22.1562733566 23.0689881990 24.1429720901
H 23.9802160493 22.3007748942 22.6008596768
H 25.0305258653 23.6561812865 23.1679145711
H 23.3350318562 25.3134454141 22.3470571590
H 22.2847202799 23.9580401842 21.7800042216
H 24.1086583618 23.1898250036 20.2378862091
H 25.1589723634 24.5452276859 20.8049404128
H 23.4634817215 26.2024978521 19.9840863797
H 22.4131648705 24.8470971452 19.4170351714
H 24.2370963336 24.0788786199 17.8749083186
H 25.2874164306 25.4342755013 18.4419607340
H 23.5919284817 27.0915559809 17.6211078426
H 22.5416059950 25.7361632760 17.0540594769
H 24.3655357070 24.9679566944 15.5118473183
H 25.4158701308 26.3233563374 16.0789016685
H 23.7205186983 27.9807362652 15.2577687921
H 22.6701186244 26.6252585212 14.6906841305
H 24.4953463267 25.8600042240 13.1417834074
H 25.5447326238 27.2141668238 13.7083204365
H 22.8107950881 27.5118333712 12.3014577424
H 24.4346757661 27.7714352452 11.5589073554
H 23.8646796125 28.8717981889 12.8704210502
C 23.4618584421 19.7891064068 32.4406660293
C 22.8233697087 20.7164186878 31.4067711249
C 23.5924252510 20.6749569020 30.0814047515
C 22.9520343521 21.6050738242 29.0443184524
C 23.7209415138 21.5639439654 27.7184422734
C 23.0805017627 22.4940965142 26.6813608135
C 23.8493975646 22.4529839984 25.3554673829
C 23.2089529735 23.3831401799 24.3183912699
C 23.9778458863 23.3420307309 22.9924951271
C 23.3374009817 24.2721897789 21.9554211097
C 24.1062911562 24.2310806480 20.6295221362
C 23.4658472451 25.1612432582 19.5924477580
C 24.2347335923 25.1201352272 18.2665412517
C 23.5942926566 26.0503053685 17.2294571146
C 24.3631749989 26.0092084065 15.9035168596
C 23.7227951591 26.9393372132 14.8664329974
C 24.4919875236 26.8977419012 13.5410955857
C 23.8575808253 27.8223359693 12.5061884366
