61
Converted from solute_1.vasp
P 23.0106171555 20.3572059773 34.5398235725
O 21.3667884908 19.8040013994 34.4350956618
O 23.6669932883 19.4123829942 35.5824252444
O 22.9998245062 21.9113775515 35.3167467796
H 21.0097069503 19.8814209448 35.3556348151
H 22.4805506740 21.7794646378 36.1497214041
H 23.9579966911 19.2423443336 32.5687171306
H 25.0101416277 20.6001104256 33.1367541869
H 23.3215092986 22.2566556611 32.3005692538
H 22.2709528458 20.9009351686 31.7333862691
H 24.0947230923 20.1335956056 30.1899841357
H 25.1450954695 21.4890850718 30.7570682407
H 23.4496516308 23.1463312752 29.9359635749
H 22.3993465102 21.7909244280 29.3689126751
H 24.2233097624 21.0226838508 27.8268193831
H 25.2736187336 22.3780961576 28.3938726479
H 23.5781280236 24.0353539209 27.5729925289
H 22.5278222085 22.6799448420 27.0059398546
H 24.3517690965 21.9117273758 25.4638342921
H 25.4020767437 23.2671362222 26.0308880911
H 23.7065810633 24.9243964614 25.2100256185
H 22.6562733566 23.5689881990 24.6429720901
H 24.4802160493 22.8007748942 23.1008596768
H 25.5305258653 24.1561812865 23.6679145711
H 23.8350318562 25.8134454141 22.8470571590
H 22.7847202799 24.4580401842 22.2800042216
H 24.6086583618 23.6898250036 20.7378862091
H 25.6589723634 25.0452276859 21.3049404128
H 23.9634817215 26.7024978521 20.4840863797
H 22.9131648705 25.3470971452 19.9170351714
H 24.7370963336 24.5788786199 18.3749083186
H 25.7874164306 25.9342755013 18.9419607340
H 24.0919284817 27.5915559809 18.1211078426
H 23.0416059950 26.2361632760 17.5540594769
H 24.8655357070 25.4679566944 16.0118473183
H 25.9158701308 26.8233563374 16.5789016685
H 24.2205186983 28.4807362652 15.7577687921
H 23.1701186244 27.1252585212 15.1906841305
H 24.9953463267 26.3600042240 13.6417834074
H 26.0447326238 27.7141668238 14.2083204365
H 23.3107950881 28.0118333712 12.8014577424
H 24.9346757661 28.2714352452 12.0589073554
H 24.3646796125 29.3717981889 13.3704210502
C 23.9618584421 20.2891064068 32.9406660293
C 23.3233697087 21.2164186878 31.9067711249
C 24.0924252510 21.1749569020 30.5814047515
C 23.4520343521 22.1050738242 29.5443184524
C 24.2209415138 22.0639439654 28.2184422734
C 23.5805017627 22.9940965142 27.1813608135
C 24.3493975646 22.9529839984 25.8554673829
C 23.7089529735 23.8831401799 24.8183912699
C 24.4778458863 23.8420307309 23.4924951271
C 23.8374009817 24.7721897789 22.4554211097
C 24.6062911562 24.7310806480 21.1295221362
C 23.9658472451 25.6612432582 20.0924477580
C 24.7347335923 25.6201352272 18.7665412517
C 24.0942926566 26.5503053685 17.7294571146
C 24.8631749989 26.5092084065 16.4035168596
C 24.2227951591 27.4393372132 15.3664329974
C 24.9919875236 27.3977419012 14.0410955857
C 24.3575808253 28.3223359693 13.0061884366
