13
Converted from thf.vasp
H 3.1914862636 -6.0108407228 -6.1385101845
H 4.2677655568 -4.9723951248 -7.1483746552
H 7.1232550017 -6.7953993858 -6.2557347957
H 5.9900616634 -8.0594614491 -5.6436943056
H 3.9322894195 -6.6667664209 -8.7375000645
H 3.5658845251 -7.9033289612 -7.4510348176
H 6.2518703291 -6.8742119625 -8.4188119337
H 5.7719565911 -8.5610165730 -7.9261592970
C 4.1632970683 -5.9730925619 -6.6754195631
C 6.0712053466 -7.1513753892 -6.2799263586
C 4.2235649873 -7.0522350874 -7.7361735105
C 5.6563306720 -7.4788175443 -7.6990945436
O 5.2198429509 -6.1553162415 -5.7602676991
