61
Converted from solute_1.vasp
P -15.1538755879 11.4232612449 -4.9180833041
O -16.7977042526 10.8700566670 -5.0228112148
O -14.4974994551 10.4784382618 -3.8754816321
O -15.1646682372 12.9774328191 -4.1411600970
H -17.1547857931 10.9474762124 -4.1022720614
H -15.6839420694 12.8455199054 -3.3081854724
H -14.2064960522 10.3083996012 -6.8891897460
H -13.1543511157 11.6661656932 -6.3211526897
H -14.8429834448 13.3227109287 -7.1573376227
H -15.8935398976 11.9669904362 -7.7245206075
H -14.0697696511 11.1996508732 -9.2679227408
H -13.0193972738 12.5551403394 -8.7008386359
H -14.7148411126 14.2123865428 -9.5219433017
H -15.7651462331 12.8569796956 -10.0889942014
H -13.9411829809 12.0887391184 -11.6310874935
H -12.8908740098 13.4441514252 -11.0640342287
H -14.5863647198 15.1014091885 -11.8849143477
H -15.6366705349 13.7460001096 -12.4519670219
H -13.8127236469 12.9777826434 -13.9940725845
H -12.7624159997 14.3331914898 -13.4270187855
H -14.4579116800 15.9904517290 -14.2478812581
H -15.5082193868 14.6350434666 -14.8149347864
H -13.6842766940 13.8668301618 -16.3570471998
H -12.6339668780 15.2222365541 -15.7899923054
H -14.3294608871 16.8795006817 -16.6108497176
H -15.3797724634 15.5240954518 -17.1779026549
H -13.5558343816 14.7558802712 -18.7200206675
H -12.5055203800 16.1112829535 -18.1529664637
H -14.2010110219 17.7685531197 -18.9738204969
H -15.2513278729 16.4131524128 -19.5408717052
H -13.4273964098 15.6449338875 -21.0829985580
H -12.3770763128 17.0003307689 -20.5159461425
H -14.0725642617 18.6576112485 -21.3367990339
H -15.1228867483 17.3022185436 -21.9038473996
H -13.2989570363 16.5340119620 -23.4460595582
H -12.2486226126 17.8894116050 -22.8790052080
H -13.9439740451 19.5467915328 -23.7001380845
H -14.9943741190 18.1913137888 -24.2672227461
H -13.1691464167 17.4260594916 -25.8161234691
H -12.1197601196 18.7802220914 -25.2495864401
H -14.8536976553 19.0778886388 -26.6564491341
H -13.2298169773 19.3374905128 -27.3989995211
H -13.7998131308 20.4378534565 -26.0874858264
C -14.2026343013 11.3551616744 -6.5172408473
C -14.8411230346 12.2824739554 -7.5511357517
C -14.0720674924 12.2410121696 -8.8765021250
C -14.7124583913 13.1711290918 -9.9135884242
C -13.9435512295 13.1299992330 -11.2394646031
C -14.5839909806 14.0601517818 -12.2765460631
C -13.8150951788 14.0190392660 -13.6024394936
C -14.4555397699 14.9491954475 -14.6395156066
C -13.6866468571 14.9080859985 -15.9654117494
C -14.3270917617 15.8382450465 -17.0024857669
C -13.5582015872 15.7971359156 -18.3283847404
C -14.1986454983 16.7272985258 -19.3654591186
C -13.4297591510 16.6861904948 -20.6913656248
C -14.0702000868 17.6163606361 -21.7284497620
C -13.3013177445 17.5752636741 -23.0543900169
C -13.9416975843 18.5053924808 -24.0914738792
C -13.1725052198 18.4637971688 -25.4168112909
C -13.8069119181 19.3883912369 -26.4517184399
