360
Converted and wrapped in x/y from surface.vasp
H 7.2422590475 2.0253424292 10.3830000000
H 7.2695327947 12.5003698812 10.3555000000
H 16.0422611071 1.9130096951 10.9515000000
H 16.0928843213 12.3970489150 10.9350000000
H 7.2420628335 7.2647423392 10.3850000000
H 7.2432401175 17.7441708871 10.3830000000
H 16.0499134535 7.1396254693 10.9525000000
H 16.0540339476 17.6358200970 10.9500000000
H 2.9575337476 1.9104947832 10.9545000000
H 2.9571413196 12.3851030832 10.9575000000
H 13.7840340853 2.0238753972 10.3835000000
H 13.8527089882 12.5393510165 10.3345000000
H 2.9557678215 7.1463319012 10.9570000000
H 2.9589072456 17.6318381530 10.9560000000
H 13.7914902176 7.2567784513 10.3760000000
H 13.7885470074 17.7431230071 10.3855000000
H 9.4961693612 1.9071415672 10.9555000000
H 9.3592119834 12.3016918366 11.0115000000
H 0.7006802238 2.0249232772 10.3840000000
H 0.7051931459 12.5035135212 10.3855000000
H 9.4914602250 7.1314520055 10.9650000000
H 9.4894980849 17.6255508732 10.9610000000
H 0.7008764378 7.2641136112 10.3850000000
H 0.7026423638 17.7450091911 10.3845000000
H 6.0959768108 2.9403512295 9.7435000000
H 6.0855774684 13.4053190337 9.7665000000
H 15.7210587755 3.5489599230 9.3575000000
H 15.7375407522 14.0332087189 9.3485000000
H 6.0989200210 8.1810085954 9.7410000000
H 6.0961730248 18.6579222314 9.7440000000
H 15.7275338378 8.7908747450 9.3610000000
H 15.7234133436 19.2667405010 9.3570000000
H 2.6394708401 3.5472833150 9.3590000000
H 2.6439837623 14.0283884710 9.3610000000
H 12.6367707785 2.9367884375 9.7440000000
H 12.6681650199 13.4428331370 9.7185000000
H 2.6445724043 8.7873119530 9.3595000000
H 2.6416291942 19.2671596529 9.3595000000
H 12.6446193389 8.1726255556 9.7380000000
H 12.6403026307 18.6560360474 9.7460000000
H 9.1808534498 3.5477024670 9.3590000000
H 9.1747708155 14.0051255354 9.3835000000
H 19.1757988202 2.9395129255 9.7435000000
H 19.1797231003 13.4181031694 9.7440000000
H 9.1826193759 8.7894077130 9.3630000000
H 9.1816383058 19.2652734690 9.3600000000
H 19.1773685322 8.1797511395 9.7425000000
H 19.1773685322 18.6585509594 9.7430000000
O 7.6417507685 1.5206834299 1.9235000000
O 7.6417507685 11.9994832498 1.9235000000
O 17.4524511850 1.5206834299 1.9235000000
O 17.4524511850 11.9994832498 1.9235000000
O 7.6417507685 6.7600833398 1.9235000000
O 7.6417507685 17.2388831598 1.9235000000
O 17.4524511850 6.7600833398 1.9235000000
O 17.4524511850 17.2388831598 1.9235000000
O 4.3714518916 1.5206834299 1.9235000000
O 4.3714518916 11.9994832498 1.9235000000
O 14.1821523082 1.5206834299 1.9235000000
O 14.1821523082 11.9994832498 1.9235000000
O 4.3714518916 6.7600833398 1.9235000000
O 4.3714518916 17.2388831598 1.9235000000
O 14.1821523082 6.7600833398 1.9235000000
O 14.1821523082 17.2388831598 1.9235000000
O 1.1011530148 1.5206834299 1.9235000000
O 1.1011530148 11.9994832498 1.9235000000
O 10.9118534313 1.5206834299 1.9235000000
O 10.9118534313 11.9994832498 1.9235000000
O 1.1011530148 6.7600833398 1.9235000000
O 1.1011530148 17.2388831598 1.9235000000
O 10.9118534313 6.7600833398 1.9235000000
O 10.9118534313 17.2388831598 1.9235000000
O 9.2768020999 4.1403833849 2.8675000000
O 9.2768020999 14.6191832048 2.8675000000
O 19.0875025164 4.1403833849 2.8675000000
O 19.0875025164 14.6191832048 2.8675000000
O 9.2768020999 9.3797832948 2.8675000000
O 9.2768020999 19.8585831148 2.8675000000
O 19.0875025164 9.3797832948 2.8675000000
O 19.0875025164 19.8585831148 2.8675000000
O 6.0065032230 4.1403833849 2.8675000000
O 6.0065032230 14.6191832048 2.8675000000
O 15.8172036396 4.1403833849 2.8675000000
O 15.8172036396 14.6191832048 2.8675000000
O 6.0065032230 9.3797832948 2.8675000000
O 6.0065032230 19.8585831148 2.8675000000
O 15.8172036396 9.3797832948 2.8675000000
O 15.8172036396 19.8585831148 2.8675000000
O 2.7362043462 4.1403833849 2.8675000000
O 2.7362043462 14.6191832048 2.8675000000
O 12.5469047627 4.1403833849 2.8675000000
O 12.5469047627 14.6191832048 2.8675000000
O 2.7362043462 9.3797832948 2.8675000000
O 2.7362043462 19.8585831148 2.8675000000
O 12.5469047627 9.3797832948 2.8675000000
O 12.5469047627 19.8585831148 2.8675000000
O 9.2856317303 1.4705947667 4.7960000000
O 9.2872014423 11.9493945867 4.7940000000
O 19.0706281117 1.4722713747 4.8000000000
O 19.0763183180 11.9508616187 4.7985000000
O 9.2875938703 6.7104138287 4.7960000000
O 9.2858279443 17.1862795847 4.7970000000
O 19.0710205397 6.7108329807 4.8000000000
O 19.0743561779 17.1900519526 4.8000000000
O 5.9900212463 1.4722713747 4.8000000000
O 5.9910023164 11.9502328907 4.7970000000
O 15.8244635579 1.4701756147 4.7965000000
O 15.8291726941 11.9496041627 4.7950000000
O 5.9913947444 6.7108329807 4.7995000000
O 5.9927682424 17.1890040727 4.8005000000
O 15.8262294840 6.7097851007 4.7965000000
O 15.8272105540 17.1887944967 4.7960000000
O 2.7450339766 1.4708043427 4.7960000000
O 2.7469961166 11.9481371307 4.7955000000
O 12.5288530740 1.4720617987 4.8005000000
O 12.5288530740 11.9498137387 4.8020000000
O 2.7450339766 6.7091563727 4.7960000000
O 2.7467999026 17.1883753447 4.7955000000
O 12.5316000701 6.7125095887 4.8005000000
O 12.5286568600 17.1883753447 4.8010000000
O 7.6384151303 4.0919713297 5.6740000000
O 7.6411621264 14.5667892057 5.6835000000
O 17.4418556286 4.0896659937 5.7140000000
O 17.4453874807 14.5693041177 5.7100000000
O 7.6415545545 9.3290659037 5.6730000000
O 7.6382189163 19.8089136036 5.6750000000
O 17.4444064107 9.3282275997 5.7135000000
O 17.4436215546 19.8074465717 5.7130000000
O 4.3624260472 4.0898755697 5.7140000000
O 4.3637995453 14.5672083577 5.7135000000
O 14.1774431720 4.0917617537 5.6750000000
O 14.1786204560 14.5711903016 5.6675000000
O 4.3641919733 9.3275988717 5.7130000000
O 4.3622298332 19.8084944516 5.7140000000
O 14.1794053120 9.3307425117 5.6780000000
O 14.1774431720 19.8078657237 5.6740000000
O 1.0970325206 4.0913426017 5.6740000000
O 1.0999757307 14.5695136937 5.6760000000
O 10.9022389449 4.0905042977 5.7160000000
O 10.9024351589 14.5653221737 5.7215000000
O 1.0987984467 9.3290659037 5.6755000000
O 1.0984060186 19.8097519076 5.6750000000
O 10.9055745830 9.3305329357 5.7185000000
O 10.9016503029 19.8051412357 5.7165000000
O 7.6301741420 1.4733192547 7.5750000000
O 7.6293892859 11.9458317947 7.5675000000
O 17.4300827881 1.4649362148 7.6560000000
O 17.4424442706 11.9456222187 7.6490000000
O 7.6335097801 6.7137670446 7.5760000000
O 7.6364529902 17.1879561927 7.5790000000
O 17.4300827881 6.7045457008 7.6575000000
O 17.4347919243 17.1841838247 7.6540000000
O 4.3488872806 1.4659840948 7.6565000000
O 4.3514380628 11.9414306988 7.6550000000
O 14.1699870396 1.4695468867 7.5755000000
O 14.1835258062 11.9531669546 7.5700000000
O 4.3496721367 6.7043361248 7.6560000000
O 4.3502607787 17.1850221287 7.6555000000
O 14.1697908256 6.7143957726 7.5775000000
O 14.1729302498 17.1885849207 7.5760000000
O 1.0893801743 1.4722713747 7.5755000000
O 1.0952665945 11.9496041627 7.5770000000
O 10.8892888203 1.4632596069 7.6575000000
O 10.8871304663 11.9405923948 7.6650000000
O 1.0905574583 6.7104138287 7.5765000000
O 1.0931082404 17.1894232246 7.5770000000
O 10.8914471744 6.7081084927 7.6585000000
O 10.8890926063 17.1776869688 7.6620000000
O 5.9900212463 4.1068512254 8.5730000000
O 5.9894326043 14.5894234133 8.5695000000
O 15.7816889041 4.1317907690 8.5310000000
O 15.7887526084 14.6154108369 8.5220000000
O 5.9927682424 9.3462511354 8.5720000000
O 5.9913947444 19.8254701074 8.5715000000
O 15.7850245422 9.3722385590 8.5345000000
O 15.7832586161 19.8491521949 8.5295000000
O 2.7012782527 4.1305333130 8.5325000000
O 2.7044176768 14.6095427090 8.5340000000
O 12.5306190000 4.1028692815 8.5735000000
O 12.5370940623 14.5837648614 8.5700000000
O 2.7050063189 9.3693044950 8.5330000000
O 2.7030441788 19.8497809229 8.5325000000
O 12.5329735681 9.3512809593 8.5865000000
O 12.5300303580 19.8214881634 8.5740000000
O 9.2428570764 4.1307428890 8.5325000000
O 9.2456040726 14.5978064532 8.5570000000
O 19.0698432557 4.1060129214 8.5735000000
O 19.0737675358 14.5852318934 8.5745000000
O 9.2471737846 9.3722385590 8.5380000000
O 9.2432495045 19.8489426189 8.5335000000
O 19.0718053958 9.3447841034 8.5755000000
O 19.0720016098 19.8244222274 8.5735000000
O 6.2435297451 2.0356116530 10.1965000000
O 6.2492199513 12.5007890332 10.2020000000
O 15.4540115102 2.0588745886 10.1910000000
O 15.4940391679 12.5439616885 10.1825000000
O 6.2445108151 7.2758498670 10.1950000000
O 6.2441183871 17.7538113829 10.1970000000
O 15.4573471483 7.2947117067 10.1975000000
O 15.4602903584 17.7774934705 10.1930000000
O 2.3706576487 2.0565692527 10.1930000000
O 2.3696765786 12.5320158567 10.1965000000
O 12.7853047828 2.0328871651 10.1975000000
O 12.8475046235 12.5378839846 10.1710000000
O 2.3698727926 7.2930350987 10.1950000000
O 2.3726197887 17.7768647426 10.1940000000
O 12.7907987751 7.2693530111 10.1960000000
O 12.7906025611 17.7517156230 10.1985000000
O 8.9118440444 2.0565692527 10.1930000000
O 8.8665186085 12.5372552566 10.1885000000
O 19.3233517544 2.0351925010 10.1970000000
O 19.3270798206 12.5139923210 10.1980000000
O 8.9163569666 7.2917776427 10.1980000000
O 8.9134137565 17.7785413505 10.1925000000
O 19.3233517544 7.2754307150 10.1980000000
O 19.3253138945 17.7542305349 10.1975000000
Zn 7.6417507685 3.5212958915 1.9235000000
Zn 7.6417507685 14.0000957114 1.9235000000
Zn 17.4524511850 3.5212958915 1.9235000000
Zn 17.4524511850 14.0000957114 1.9235000000
Zn 7.6417507685 8.7606958015 1.9235000000
Zn 7.6417507685 19.2394956214 1.9235000000
Zn 17.4524511850 8.7606958015 1.9235000000
Zn 17.4524511850 19.2394956214 1.9235000000
Zn 4.3714518916 3.5212958915 1.9235000000
Zn 4.3714518916 14.0000957114 1.9235000000
Zn 14.1821523082 3.5212958915 1.9235000000
Zn 14.1821523082 14.0000957114 1.9235000000
Zn 4.3714518916 8.7606958015 1.9235000000
Zn 4.3714518916 19.2394956214 1.9235000000
Zn 14.1821523082 8.7606958015 1.9235000000
Zn 14.1821523082 19.2394956214 1.9235000000
Zn 1.1011530148 3.5212958915 1.9235000000
Zn 1.1011530148 14.0000957114 1.9235000000
Zn 10.9118534313 3.5212958915 1.9235000000
Zn 10.9118534313 14.0000957114 1.9235000000
Zn 1.1011530148 8.7606958015 1.9235000000
Zn 1.1011530148 19.2394956214 1.9235000000
Zn 10.9118534313 8.7606958015 1.9235000000
Zn 10.9118534313 19.2394956214 1.9235000000
Zn 9.2768020999 0.9015959365 2.8675000000
Zn 9.2768020999 11.3803957565 2.8675000000
Zn 19.0875025164 0.9015959365 2.8675000000
Zn 19.0875025164 11.3803957565 2.8675000000
Zn 9.2768020999 6.1409958465 2.8675000000
Zn 9.2768020999 16.6197956664 2.8675000000
Zn 19.0875025164 6.1409958465 2.8675000000
Zn 19.0875025164 16.6197956664 2.8675000000
Zn 6.0065032230 0.9015959365 2.8675000000
Zn 6.0065032230 11.3803957565 2.8675000000
Zn 15.8172036396 0.9015959365 2.8675000000
Zn 15.8172036396 11.3803957565 2.8675000000
Zn 6.0065032230 6.1409958465 2.8675000000
Zn 6.0065032230 16.6197956664 2.8675000000
Zn 15.8172036396 6.1409958465 2.8675000000
Zn 15.8172036396 16.6197956664 2.8675000000
Zn 2.7362043462 0.9015959365 2.8675000000
Zn 2.7362043462 11.3803957565 2.8675000000
Zn 12.5469047627 0.9015959365 2.8675000000
Zn 12.5469047627 11.3803957565 2.8675000000
Zn 2.7362043462 6.1409958465 2.8675000000
Zn 2.7362043462 16.6197956664 2.8675000000
Zn 12.5469047627 6.1409958465 2.8675000000
Zn 12.5469047627 16.6197956664 2.8675000000
Zn 9.2805301660 3.4475251408 4.7695000000
Zn 9.2801377380 13.9269536887 4.7715000000
Zn 19.0723940378 3.4508783567 4.7645000000
Zn 19.0774956020 13.9298877527 4.7640000000
Zn 9.2838658042 8.6879729307 4.7700000000
Zn 9.2795490960 19.1632099587 4.7700000000
Zn 19.0759258899 8.6894399627 4.7640000000
Zn 19.0747486059 19.1688685106 4.7650000000
Zn 5.9923758144 3.4508783567 4.7645000000
Zn 5.9972811646 13.9292590247 4.7685000000
Zn 15.8199506357 3.4473155648 4.7695000000
Zn 15.8226976318 13.9269536887 4.7675000000
Zn 5.9951228105 8.6900686907 4.7650000000
Zn 5.9925720284 19.1676110547 4.7650000000
Zn 15.8215203478 8.6867154747 4.7695000000
Zn 15.8209317057 19.1659344467 4.7690000000
Zn 2.7401286263 3.4479442928 4.7695000000
Zn 2.7424831944 13.9254866567 4.7700000000
Zn 12.5306190000 3.4504592047 4.7645000000
Zn 12.5280682179 13.9294686007 4.7650000000
Zn 2.7422869804 8.6867154747 4.7695000000
Zn 2.7409134824 19.1648865667 4.7695000000
Zn 12.5327773541 8.6917452987 4.7655000000
Zn 12.5304227860 19.1671919027 4.7645000000
Zn 7.6409659124 0.8494115134 5.7005000000
Zn 7.6417507685 11.3292592133 5.6990000000
Zn 17.4471534068 0.8527647293 5.7500000000
Zn 17.4526473990 11.3311453973 5.7450000000
Zn 7.6429280525 6.0911167593 5.7010000000
Zn 7.6423394105 16.5644676034 5.7055000000
Zn 17.4483306908 6.0923742153 5.7510000000
Zn 17.4500966169 16.5724314912 5.7490000000
Zn 4.3665465414 0.8533934573 5.7510000000
Zn 4.3698821795 11.3315645493 5.7515000000
Zn 14.1796015260 0.8487827854 5.6995000000
Zn 14.1837220202 11.3294687893 5.6935000000
Zn 4.3675276114 6.0932125193 5.7510000000
Zn 4.3687048955 16.5692878513 5.7515000000
Zn 14.1823485222 6.0904880314 5.7010000000
Zn 14.1821523082 16.5701261553 5.6990000000
Zn 1.1011530148 0.8510881214 5.7005000000
Zn 1.1048810809 11.3282113334 5.7020000000
Zn 10.9055745830 0.8504593934 5.7520000000
Zn 10.9026313729 11.3349177652 5.7565000000
Zn 1.1015454428 6.0902784554 5.7010000000
Zn 1.1040962249 16.5680303953 5.7020000000
Zn 10.9071442951 6.0940508233 5.7520000000
Zn 10.9051821550 16.5692878513 5.7555000000
Zn 7.5405043402 3.4628241885 7.5540000000
Zn 7.5461945464 13.9347080006 7.5700000000
Zn 17.4930674847 3.4609380045 7.6080000000
Zn 17.4997387610 13.9428814644 7.6025000000
Zn 7.5454096904 8.7066251944 7.5555000000
Zn 7.5432513363 19.1762036705 7.5560000000
Zn 17.4967955509 8.7001283385 7.6065000000
Zn 17.4950296248 19.1808143424 7.6070000000
Zn 4.4120681913 3.4624050365 7.6085000000
Zn 4.4167773275 13.9378516405 7.6090000000
Zn 14.0811020939 3.4586326686 7.5535000000
Zn 14.0879695842 13.9462346804 7.5450000000
Zn 4.4161886855 8.7011762185 7.6080000000
Zn 4.4134416894 19.1799760384 7.6080000000
Zn 14.0809058799 8.7041102824 7.5575000000
Zn 14.0807096658 19.1789281585 7.5545000000
Zn 1.0002990145 3.4624050365 7.5545000000
Zn 1.0052043647 13.9399474005 7.5570000000
Zn 10.9510962330 3.4586326686 7.6085000000
Zn 10.9452098127 13.9393186725 7.6195000000
Zn 1.0044195086 8.7013857945 7.5570000000
Zn 1.0028497966 19.1791377345 7.5550000000
Zn 10.9528621590 8.7057868904 7.6130000000
Zn 10.9503113769 19.1745270625 7.6110000000
Zn 6.0078767211 0.8041430982 8.5760000000
Zn 6.0114085732 11.2852482541 8.5855000000
Zn 15.7773721959 0.9185715922 8.6255000000
Zn 15.7938541726 11.4000959001 8.6135000000
Zn 6.0098388612 6.0452196161 8.5750000000
Zn 6.0098388612 16.5225524041 8.5765000000
Zn 15.7773721959 6.1586002302 8.6235000000
Zn 15.7828661881 16.6430586020 8.6250000000
Zn 2.6963729025 0.9194098962 8.6265000000
Zn 2.7038290348 11.3988384441 8.6295000000
Zn 12.5472971907 0.8007898822 8.5765000000
Zn 12.5557343931 11.2932121420 8.5550000000
Zn 2.6985312566 6.1583906542 8.6280000000
Zn 2.7012782527 16.6376096261 8.6295000000
Zn 12.5472971907 6.0383036082 8.5705000000
Zn 12.5500441869 16.5221332521 8.5780000000
Zn 9.2352047301 0.9173141362 8.6270000000
Zn 9.2257864577 11.4053353000 8.6495000000
Zn 19.0894646565 0.8039335222 8.5760000000
Zn 19.0961359328 11.2821046141 8.5770000000
Zn 9.2373630842 6.1588098062 8.6280000000
Zn 9.2369706562 16.6235680344 8.6385000000
Zn 19.0902495125 6.0433334322 8.5770000000
Zn 19.0920154386 16.5221332521 8.5765000000
