POSCAR
1.00
 20.000000000000      0.000000000000      0.000000000000
  0.000000000000     20.000000000000      0.000000000000
  0.000000000000      0.000000000000     20.000000000000
O    C    H    
1    5    10    
Direct
 -0.528119273077      0.465311433883      0.490391802212
 -0.475323843949      0.420402466964      0.503479433793
 -0.408860842080      0.455893040165      0.494767142880
 -0.427365791751      0.528153344446      0.500316437970
 -0.499683238139      0.528400053167      0.476980615107
 -0.540504602372      0.583207497243      0.511105235224
 -0.480121155917      0.401985658149      0.555693843361
 -0.478768357271      0.376941296224      0.469055998434
 -0.388153261711      0.445402250132      0.444201956473
 -0.372093613144      0.440936203875      0.533691776411
 -0.395186654499      0.560201185186      0.468249833864
 -0.423138461508      0.544296888078      0.553429241641
 -0.501029987506      0.536923356172      0.421988495646
 -0.542330103310      0.574780930102      0.565989217849
 -0.592401292956      0.582948363264      0.491355170819
 -0.517944662324      0.632948172864      0.500993659141