POSCAR
1.00
 10.000000000000      0.000000000000      0.000000000000
  0.000000000000     10.000000000000      0.000000000000
  0.000000000000      0.000000000000     10.000000000000
C    H    O    
3    6    1    
Direct
 -0.612151978480      0.484329802253     -0.005619558914
 -0.478859474051      0.549303711703      0.015524239647
 -0.353031321817      0.470218417505     -0.003139891082
 -0.623632371222      0.399054957760      0.064514301093
 -0.619351173104      0.447038646000     -0.109926319457
 -0.694437364654      0.556799033609      0.012295316136
 -0.347934855958      0.432257957956     -0.107329092743
 -0.352218924307      0.384273957339      0.067111441919
 -0.263720289163      0.533342645671      0.016417339254
 -0.472765767858      0.666910127394      0.048022647303