CPME - PubChem 3D conformer centered in 20 A box
1.0
20.0000000000 0.0000000000 0.0000000000
0.0000000000 20.0000000000 0.0000000000
0.0000000000 0.0000000000 20.0000000000
C H O
6 12 1
Cartesian
10.4179473684 9.5985210526 9.7099105263
9.9166473684 10.9258210526 10.2544105263
9.3423473684 8.6252210526 10.1652105263
8.4130473684 10.8773210526 10.0146105263
8.0400473684 9.3931210526 9.9732105263
12.6534473684 10.2623210526 9.9329105263
10.4666473684 9.6138210526 8.6131105263
10.3695473684 11.7903210526 9.7583105263
10.1286473684 11.0165210526 11.3273105263
9.4825473684 8.3608210526 11.2208105263
9.3637473684 7.6899210526 9.5970105263
8.1634473684 11.3481210526 9.0567105263
7.8659473684 11.4134210526 10.7966105263
7.3096473684 9.1357210526 10.7468105263
7.5910473684 9.1501210526 9.0033105263
12.5104473684 11.1641210526 10.5351105263
12.6431473684 10.5052210526 8.8655105263
13.6385473684 9.8556210526 10.1797105263
11.6831473684 9.2739210526 10.2494105263
