cyclohexane - PubChem 3D conformer centered in 20 A box
1.0
20.0000000000 0.0000000000 0.0000000000
0.0000000000 20.0000000000 0.0000000000
0.0000000000 0.0000000000 20.0000000000
C H
6 12
Cartesian
9.9565000000 8.5427055556 9.7741944444
11.2404000000 9.2337055556 10.2257944444
8.7162000000 9.3090055556 10.2257944444
11.2838000000 10.6911055556 9.7742944444
8.7596000000 10.7662055556 9.7741944444
10.0435000000 11.4573055556 10.2257944444
9.9540000000 8.4575055556 8.6805944444
9.9261000000 7.5229055556 10.1740944444
11.3129000000 9.1889055556 11.3193944444
12.1083000000 8.6974055556 9.8257944444
7.8179000000 8.8254055556 9.8258944444
8.6412000000 9.2686055556 11.3194944444
12.1821000000 11.1746055556 10.1741944444
11.3590000000 10.7315055556 8.6805944444
8.6871000000 10.8110055556 8.6804944444
7.8917000000 11.3025055556 10.1740944444
10.0459000000 11.5425055556 11.3194944444
10.0738000000 12.4771055556 9.8257944444
