DMC - PubChem 3D conformer centered in 20 A box
1.0
20.0000000000 0.0000000000 0.0000000000
0.0000000000 20.0000000000 0.0000000000
0.0000000000 0.0000000000 20.0000000000
C H O
3 6 3
Cartesian
10.0000000000 10.0316666667 10.0008916667
7.6389000000 9.9122666667 9.9997916667
12.3610000000 9.9122666667 9.9997916667
7.5404000000 10.5266666667 10.8998916667
6.8453000000 9.1604666667 9.9995916667
7.5413000000 10.5263666667 9.0993916667
13.1547000000 9.1603666667 9.9994916667
12.4596000000 10.5266666667 10.8998916667
12.4587000000 10.5262666667 9.0994916667
8.8977000000 9.2308666667 10.0005916667
11.1023000000 9.2308666667 10.0005916667
10.0001000000 11.2552666667 10.0005916667
