ethanol - PubChem 3D conformer centered in 20 A box
1.0
20.0000000000 0.0000000000 0.0000000000
0.0000000000 20.0000000000 0.0000000000
0.0000000000 0.0000000000 20.0000000000
C H O
2 6 1
Cartesian
9.5882444444 9.4452222222 9.9113666667
10.8520444444 10.2785222222 9.9113666667
9.5387444444 8.7997222222 10.7932666667
9.5393444444 8.8179222222 9.0167666667
11.7395444444 9.6397222222 9.8936666667
10.8771444444 10.9424222222 9.0409666667
10.8961444444 10.9169222222 10.7999666667
8.5054444444 10.8481222222 10.7212666667
8.4633444444 10.3114222222 9.9113666667
