ethyl_acetate - PubChem 3D conformer centered in 20 A box
1.0
20.0000000000 0.0000000000 0.0000000000
0.0000000000 20.0000000000 0.0000000000
0.0000000000 0.0000000000 20.0000000000
C H O
4 8 2
Cartesian
8.9861714286 10.6789857143 10.0000357143
7.6825714286 9.9093857143 10.0000357143
11.3198714286 10.3079857143 9.9998357143
12.3544714286 9.2237857143 10.0000357143
9.0437714286 11.3094857143 10.8942357143
9.0436714286 11.3097857143 9.1059357143
6.8266714286 10.5899857143 10.0001357143
7.6182714286 9.2603857143 9.1204357143
7.6184714286 9.2600857143 10.8793357143
12.2489714286 8.6102857143 9.1017357143
12.2498714286 8.6115857143 10.8993357143
13.3513714286 9.6737857143 9.9992357143
10.0754714286 9.7508857143 9.9997357143
11.5803714286 11.5035857143 9.9999357143
