isopropanol - PubChem 3D conformer centered in 20 A box
1.0
20.0000000000 0.0000000000 0.0000000000
0.0000000000 20.0000000000 0.0000000000
0.0000000000 0.0000000000 20.0000000000
C H O
3 8 1
Cartesian
9.9999250000 10.3310916667 10.4522500000
8.7400250000 9.6255916667 9.9742500000
11.2602250000 9.6262916667 9.9742500000
9.9998250000 10.3779916667 11.5461500000
8.6920250000 8.5994916667 10.3511500000
7.8492250000 10.1649916667 10.3134500000
8.6938250000 9.5995916667 8.8799500000
11.3088250000 8.6001916667 10.3511500000
12.1507250000 10.1662916667 10.3134500000
11.3065250000 9.6002916667 8.8799500000
9.9993250000 11.6375916667 8.9960500000
9.9995250000 11.6705916667 9.9679500000
