POSCAR
1.00
 20.000000000000      0.000000000000      0.000000000000
  0.000000000000     20.000000000000      0.000000000000
  0.000000000000      0.000000000000     20.000000000000
C    O    H    
4    1    10    
Direct
 -0.530991410876     -0.490559337854      0.495004207233
 -0.476330812712     -0.444039887859      0.520868825692
 -0.406678046352     -0.473916492534      0.508991920914
 -0.351393899397     -0.428379233364      0.535780693794
 -0.350067734507     -0.368299863425      0.499786817603
 -0.528785539094     -0.539432483454      0.521305776829
 -0.525048720585     -0.498814646082      0.440398462241
 -0.580744162691     -0.467695278930      0.504191393821
 -0.484129334647     -0.435679173847      0.575274518616
 -0.480633353019     -0.395162976411      0.494754467861
 -0.398721390066     -0.482211929301      0.454580973308
 -0.403124993467     -0.523083679304      0.534716683472
 -0.302520509857     -0.454387530182      0.530231992410
 -0.359905426152     -0.418124770834      0.589828144606
 -0.313622131760     -0.341150681433      0.519706271688