p-xylene - PubChem 3D conformer centered in 20 A box
1.0
20.0000000000 0.0000000000 0.0000000000
0.0000000000 20.0000000000 0.0000000000
0.0000000000 0.0000000000 20.0000000000
C H
8 10
Cartesian
11.3949111111 9.9999944444 10.0003611111
8.6051111111 9.9999944444 10.0003611111
10.6974111111 11.2078944444 10.0002611111
9.3025111111 11.2079944444 10.0001611111
10.6974111111 8.7920944444 10.0002611111
9.3025111111 8.7920944444 10.0001611111
12.8862111111 9.9999944444 9.9998611111
7.1138111111 9.9999944444 9.9998611111
11.2295111111 12.1555944444 10.0016611111
8.7704111111 12.1555944444 9.9985611111
11.2295111111 7.8443944444 10.0016611111
8.7705111111 7.8443944444 9.9985611111
13.2812111111 9.1198944444 9.4810611111
13.2813111111 10.8807944444 9.4821611111
13.2621111111 9.9993944444 11.0277611111
6.7185111111 9.1196944444 10.5180611111
6.7184111111 10.8804944444 10.5175611111
6.7386111111 9.9996944444 8.9716611111
