POSCAR
1.00
 15.000000000000      0.000000000000      0.000000000000
  0.000000000000     15.000000000000      0.000000000000
  0.000000000000      0.000000000000     15.000000000000
H    N    C    O    
9    1    5    2    
Direct
  0.375528782406      0.389942794871      0.287317698364
  0.367147620958      0.513063481982      0.417225442512
  0.560160337227      0.355618366568      0.368235187876
  0.442611148117      0.265742157307      0.342038953675
  0.465583006544      0.453570838672      0.515660953908
  0.539556641928      0.324469671916      0.483124956880
  0.396309765930      0.283691423444      0.452000506139
  0.305004054441      0.381370807652      0.384750127454
  0.683345613309      0.545715538841      0.390804082902
  0.411457683738      0.466509607269      0.392450646382
  0.484722719037      0.449351227410      0.443857288935
  0.510895270649      0.358611164742      0.423769403971
  0.429808859611      0.316725774458      0.394466520729
  0.375172004610      0.388814081552      0.361475775147
  0.556609124634      0.518152606738      0.426869033700
  0.539936851472      0.596960203663      0.439528363366
  0.641994986017      0.492873611913      0.398964675035