propylene_carbonate - PubChem 3D conformer centered in 20 A box
1.0
20.0000000000 0.0000000000 0.0000000000
0.0000000000 20.0000000000 0.0000000000
0.0000000000 0.0000000000 20.0000000000
C H O
4 6 3
Cartesian
9.7665692308 10.1875615385 10.4260307692
10.2369692308 8.8609615385 9.9072307692
8.4698692308 10.6602615385 9.8017307692
11.9698692308 10.2797615385 10.0200307692
9.6821692308 10.1851615385 11.5194307692
9.8373692308 8.0217615385 10.4835307692
10.0194692308 8.7030615385 8.8453307692
8.5634692308 10.7481615385 8.7136307692
7.6471692308 9.9766615385 10.0309307692
8.2115692308 11.6577615385 10.1731307692
10.8408692308 11.0518615385 10.0739307692
11.6466692308 8.9505615385 10.0667307692
13.1079692308 10.7164615385 9.9383307692
