POSCAR
1.00
 10.000000000000      0.000000000000      0.000000000000
  0.000000000000     10.000000000000      0.000000000000
  0.000000000000      0.000000000000     10.000000000000
H    C    
8    7    
Direct
  0.228687376184      0.430301614151      0.099125480623
  0.580730132969      0.644444736322      0.227346499789
  0.707808473758      0.432865494860      0.228584192634
  0.596999094434      0.220240603006      0.165580361230
  0.357638459419      0.219457437471      0.100982251951
  0.230779589572      0.671795192973      0.232062986208
  0.277299242639      0.698725225972      0.059360738278
  0.378477108408      0.766992144090      0.191975378988
  0.395262424603      0.552616359891      0.163068480048
  0.316242493756      0.680114398849      0.161664668819
  0.530948796766      0.552369066407      0.199579130713
  0.603304366089      0.432669208955      0.200403773096
  0.540853603654      0.312771224574      0.164885281642
  0.405910978876      0.312350563230      0.128470550215
  0.333204408056      0.431818728639      0.127515411988