8686
Lattice="43.5882750985 6.1259325656 -9.3560260868 -6.2627895432 44.5620630934 0.0000000000 9.2649738841 1.3021071632 44.0166420330" Properties=species:S:1:pos:R:3:id:I:1:molecule:I:1:OPA:I:1:color:R:3 Frame=100 DisplayTranslation="-22.620574345492216 -1.3348378890285595 5.538711899081797" OPASurface=rotated_x0 DisplayOnly="OPA-following translation; whole-molecule periodic images" pbc="T T T" DisplayRotation="Ry=12deg; Rz=8deg; about origin; cell rotated too"
P 6.35178626 18.51345375 29.68092605 1 1 1 1.00000000 0.50200000 0.00000000
O 5.09015833 18.13306880 30.58273741 2 1 1 1.00000000 0.05100000 0.05100000
O 7.48770589 17.62245701 29.82717691 3 1 1 1.00000000 0.05100000 0.05100000
O 6.52803940 20.07961215 30.06243042 4 1 1 1.00000000 0.05100000 0.05100000
H 5.37880804 17.59046816 31.35840055 5 1 1 1.00000000 0.88000000 0.69000000
H 7.30149069 20.29540279 30.58869814 6 1 1 1.00000000 0.88000000 0.69000000
H 5.24725535 17.55431695 27.79763827 7 1 1 1.00000000 0.88000000 0.69000000
H 6.43350176 18.86615449 27.39853557 8 1 1 1.00000000 0.88000000 0.69000000
H 4.80595915 20.60037264 28.16482199 9 1 1 1.00000000 0.88000000 0.69000000
H 3.63880534 19.35719775 28.52712713 10 1 1 1.00000000 0.88000000 0.69000000
H 4.24495231 18.74075170 25.75779873 11 1 1 1.00000000 0.88000000 0.69000000
H 4.77449241 20.34405672 25.77677510 12 1 1 1.00000000 0.88000000 0.69000000
H 2.26638722 20.91916319 26.81728326 13 1 1 1.00000000 0.88000000 0.69000000
H 1.97233651 19.27671059 26.47708170 14 1 1 1.00000000 0.88000000 0.69000000
H 2.57423229 19.63664999 24.11992624 15 1 1 1.00000000 0.88000000 0.69000000
H 2.72675555 21.37467584 24.35935728 16 1 1 1.00000000 0.88000000 0.69000000
H 0.29256303 21.37020646 25.08215582 17 1 1 1.00000000 0.88000000 0.69000000
H 0.23383481 19.66496169 24.66355677 18 1 1 1.00000000 0.88000000 0.69000000
H 0.78733015 20.50751324 22.27370700 19 1 1 1.00000000 0.88000000 0.69000000
H 0.94295569 22.15901217 23.05578651 20 1 1 1.00000000 0.88000000 0.69000000
H -1.57747460 21.90605289 23.58710720 21 1 1 1.00000000 0.88000000 0.69000000
H -1.60561473 20.33626197 22.77894452 22 1 1 1.00000000 0.88000000 0.69000000
H -2.38884559 21.81653599 21.11851552 23 1 1 1.00000000 1.00000000 1.00000000
H -0.59272298 21.35882979 20.83206294 24 1 1 1.00000000 1.00000000 1.00000000
H 0.12392354 23.53740719 21.72417295 25 1 1 1.00000000 1.00000000 1.00000000
H -1.56206568 24.01481786 21.91462825 26 1 1 1.00000000 1.00000000 1.00000000
H -1.79674489 23.41658281 19.42068937 27 1 1 1.00000000 1.00000000 1.00000000
H -0.06327196 23.14026052 19.32034144 28 1 1 1.00000000 1.00000000 1.00000000
H 0.30377937 25.41415224 20.24637615 29 1 1 1.00000000 1.00000000 1.00000000
H -1.35740744 25.83414708 19.69663970 30 1 1 1.00000000 1.00000000 1.00000000
H -0.54817505 24.89271712 17.44248668 31 1 1 1.00000000 1.00000000 1.00000000
H 1.09481860 24.80130342 18.02732353 32 1 1 1.00000000 1.00000000 1.00000000
H 1.13067454 27.15561933 18.60814942 33 1 1 1.00000000 1.00000000 1.00000000
H -0.49222510 27.39209347 17.87605624 34 1 1 1.00000000 1.00000000 1.00000000
H 2.05741699 26.17053766 16.62371757 35 1 1 1.00000000 1.00000000 1.00000000
H 1.77806695 27.90065566 16.38135311 36 1 1 1.00000000 1.00000000 1.00000000
H -0.33824825 26.00868164 15.30160455 37 1 1 1.00000000 1.00000000 1.00000000
H 0.91156037 26.72466840 14.33242676 38 1 1 1.00000000 1.00000000 1.00000000
H -0.69863832 28.63612950 16.07322399 39 1 1 1.00000000 1.00000000 1.00000000
H -1.36520144 28.21539828 14.48078033 40 1 1 1.00000000 1.00000000 1.00000000
H 0.52038014 28.83707607 13.16180339 41 1 1 1.00000000 1.00000000 1.00000000
H 1.42784970 29.35515350 14.66034093 42 1 1 1.00000000 1.00000000 1.00000000
H -0.03521873 30.21639738 13.99908321 43 1 1 1.00000000 1.00000000 1.00000000
C 5.59694474 18.58737150 28.05541374 44 1 1 0.90000000 0.56000000 0.22000000
C 4.44476616 19.60989102 27.87790505 45 1 1 0.90000000 0.56000000 0.22000000
C 4.06627465 19.74175934 26.37229223 46 1 1 0.90000000 0.56000000 0.22000000
C 2.57775463 20.13613189 26.18208432 47 1 1 0.90000000 0.56000000 0.22000000
C 2.20804419 20.47235934 24.70657642 48 1 1 0.90000000 0.56000000 0.22000000
C 0.70672821 20.59968763 24.45089894 49 1 1 0.90000000 0.56000000 0.22000000
C 0.42624472 21.18475015 23.07648130 50 1 1 0.90000000 0.56000000 0.22000000
C -1.09190705 21.29470028 22.80425147 51 1 1 0.90000000 0.56000000 0.22000000
C -1.26651323 21.87658734 21.43694460 52 1 1 0.56500000 0.56500000 0.56500000
C -0.88792069 23.30834503 21.28561035 53 1 1 0.56500000 0.56500000 0.56500000
C -0.83902316 23.72035343 19.82012501 54 1 1 0.56500000 0.56500000 0.56500000
C -0.49741030 25.18918671 19.52395489 55 1 1 0.56500000 0.56500000 0.56500000
C 0.11596246 25.32724399 18.10352081 56 1 1 0.56500000 0.56500000 0.56500000
C 0.46186413 26.82425385 17.80342952 57 1 1 0.56500000 0.56500000 0.56500000
C 1.23145501 26.92833079 16.48651177 58 1 1 0.56500000 0.56500000 0.56500000
C 0.31206728 26.86516836 15.24333298 59 1 1 0.56500000 0.56500000 0.56500000
C -0.43538536 28.27758366 15.05794402 60 1 1 0.56500000 0.56500000 0.56500000
C 0.43071036 29.22580269 14.24055595 61 1 1 0.56500000 0.56500000 0.56500000
C 31.64973028 18.26680749 21.55541046 62 2 0 0.56500000 0.56500000 0.56500000
C 30.47503248 17.42803148 22.13845624 63 2 0 0.56500000 0.56500000 0.56500000
C 30.17654571 16.06335661 21.56129569 64 2 0 0.56500000 0.56500000 0.56500000
C 31.24913653 14.98175641 21.75206163 65 2 0 0.56500000 0.56500000 0.56500000
C 32.44692021 15.00996987 20.72862707 66 2 0 0.56500000 0.56500000 0.56500000
C 32.07981550 13.99677741 19.65210326 67 2 0 0.56500000 0.56500000 0.56500000
C 31.83758190 12.52512773 20.22426215 68 2 0 0.56500000 0.56500000 0.56500000
H 31.68583203 19.31526592 21.97149877 69 2 0 1.00000000 1.00000000 1.00000000
H 31.47422777 18.44517549 20.46352117 70 2 0 1.00000000 1.00000000 1.00000000
H 32.59811383 17.82198803 21.67162910 71 2 0 1.00000000 1.00000000 1.00000000
H 29.57832969 18.00238520 22.03857551 72 2 0 1.00000000 1.00000000 1.00000000
H 30.67323645 17.33352295 23.22868444 73 2 0 1.00000000 1.00000000 1.00000000
H 29.97143825 16.11751564 20.49207406 74 2 0 1.00000000 1.00000000 1.00000000
H 29.13703777 15.71210261 21.93713180 75 2 0 1.00000000 1.00000000 1.00000000
H 30.74900395 14.01174025 21.65955335 76 2 0 1.00000000 1.00000000 1.00000000
H 31.53091144 15.02681691 22.85265584 77 2 0 1.00000000 1.00000000 1.00000000
H 33.24739074 14.55533092 21.33061327 78 2 0 1.00000000 1.00000000 1.00000000
H 32.70915045 16.03668124 20.37188674 79 2 0 1.00000000 1.00000000 1.00000000
H 32.86620840 13.85857783 18.88695958 80 2 0 1.00000000 1.00000000 1.00000000
H 31.20739112 14.28282175 19.09660862 81 2 0 1.00000000 1.00000000 1.00000000
H 32.09830370 11.81299377 19.50644048 82 2 0 1.00000000 1.00000000 1.00000000
H 30.86769685 12.32915196 20.59835857 83 2 0 1.00000000 1.00000000 1.00000000
H 32.54838560 12.24097010 21.07429848 84 2 0 1.00000000 1.00000000 1.00000000
C 17.77643646 11.28980325 15.90086058 85 3 0 0.56500000 0.56500000 0.56500000
C 18.25719918 9.94292124 15.38770204 86 3 0 0.56500000 0.56500000 0.56500000
C 17.86330401 8.61286099 15.97568906 87 3 0 0.56500000 0.56500000 0.56500000
C 18.45873290 7.46906468 15.16377338 88 3 0 0.56500000 0.56500000 0.56500000
C 18.17800356 6.04351658 15.83856627 89 3 0 0.56500000 0.56500000 0.56500000
C 19.01332255 4.99738573 15.11271437 90 3 0 0.56500000 0.56500000 0.56500000
C 18.63188945 3.58223992 15.41390281 91 3 0 0.56500000 0.56500000 0.56500000
H 17.86397130 11.25565322 17.02418998 92 3 0 1.00000000 1.00000000 1.00000000
H 16.72617110 11.53624212 15.72394741 93 3 0 1.00000000 1.00000000 1.00000000
H 18.41820965 12.13957864 15.69900729 94 3 0 1.00000000 1.00000000 1.00000000
H 19.33986350 9.99495021 15.39172975 95 3 0 1.00000000 1.00000000 1.00000000
H 17.95785695 9.90172329 14.32977661 96 3 0 1.00000000 1.00000000 1.00000000
H 16.70279742 8.50681632 16.15556229 97 3 0 1.00000000 1.00000000 1.00000000
H 18.25217884 8.58897906 16.97050122 98 3 0 1.00000000 1.00000000 1.00000000
H 19.57438801 7.59775481 15.10760498 99 3 0 1.00000000 1.00000000 1.00000000
H 18.03988106 7.53354745 14.15898151 100 3 0 1.00000000 1.00000000 1.00000000
H 17.13720116 5.75381882 15.86011985 101 3 0 1.00000000 1.00000000 1.00000000
H 18.54352100 6.09012986 16.89432441 102 3 0 1.00000000 1.00000000 1.00000000
H 20.08297674 5.12128202 15.37190884 103 3 0 1.00000000 1.00000000 1.00000000
H 18.95454143 5.19087837 14.00975607 104 3 0 1.00000000 1.00000000 1.00000000
H 19.29070672 2.87533921 14.88494055 105 3 0 1.00000000 1.00000000 1.00000000
H 17.61989126 3.33639718 15.08426723 106 3 0 1.00000000 1.00000000 1.00000000
H 18.74571210 3.36720799 16.47456957 107 3 0 1.00000000 1.00000000 1.00000000
C 46.51278180 19.43430922 18.18718914 108 4 0 0.56500000 0.56500000 0.56500000
C 47.02906009 19.24614134 19.58405111 109 4 0 0.56500000 0.56500000 0.56500000
C 46.46697270 17.94708507 20.13106268 110 4 0 0.56500000 0.56500000 0.56500000
C 46.68666475 17.91283973 21.69252474 111 4 0 0.56500000 0.56500000 0.56500000
C 46.11685808 16.60209765 22.25195005 112 4 0 0.56500000 0.56500000 0.56500000
C 46.11215287 16.60045505 23.78295375 113 4 0 0.56500000 0.56500000 0.56500000
C 47.43519962 16.97584178 24.39133274 114 4 0 0.56500000 0.56500000 0.56500000
H 46.89633155 20.40596584 17.87465781 115 4 0 1.00000000 1.00000000 1.00000000
H 45.42874143 19.41906509 18.20146348 116 4 0 1.00000000 1.00000000 1.00000000
H 46.87822297 18.74843806 17.45349053 117 4 0 1.00000000 1.00000000 1.00000000
H 46.69634789 20.06445479 20.20324286 118 4 0 1.00000000 1.00000000 1.00000000
H 48.08462837 19.21817452 19.52772989 119 4 0 1.00000000 1.00000000 1.00000000
H 46.95002407 17.05324783 19.67516144 120 4 0 1.00000000 1.00000000 1.00000000
H 45.41295260 17.90166829 19.83122032 121 4 0 1.00000000 1.00000000 1.00000000
H 46.12572540 18.75566349 22.10673331 122 4 0 1.00000000 1.00000000 1.00000000
H 47.74782582 18.05988956 21.94140441 123 4 0 1.00000000 1.00000000 1.00000000
H 46.83723024 15.87226305 21.81343266 124 4 0 1.00000000 1.00000000 1.00000000
H 45.19777145 16.38615547 21.74289557 125 4 0 1.00000000 1.00000000 1.00000000
H 45.75740278 15.66236301 24.15561393 126 4 0 1.00000000 1.00000000 1.00000000
H 45.47858677 17.40517509 24.17542064 127 4 0 1.00000000 1.00000000 1.00000000
H 47.47116307 17.02503996 25.46377486 128 4 0 1.00000000 1.00000000 1.00000000
H 47.70884279 17.92834410 23.96023667 129 4 0 1.00000000 1.00000000 1.00000000
H 48.21200438 16.33099182 24.05254229 130 4 0 1.00000000 1.00000000 1.00000000
C 13.85701173 35.25142976 -3.22218209 131 5 0 0.56500000 0.56500000 0.56500000
C 13.19124910 36.26174999 -4.17079987 132 5 0 0.56500000 0.56500000 0.56500000
C 11.80501443 35.74373020 -4.59675286 133 5 0 0.56500000 0.56500000 0.56500000
C 10.89823465 35.57260539 -3.41055121 134 5 0 0.56500000 0.56500000 0.56500000
C 10.64826325 36.81956665 -2.45901075 135 5 0 0.56500000 0.56500000 0.56500000
C 9.86725585 36.62782155 -1.22670684 136 5 0 0.56500000 0.56500000 0.56500000
C 8.30538256 36.48463866 -1.44543612 137 5 0 0.56500000 0.56500000 0.56500000
H 14.95217545 35.06515601 -3.40859832 138 5 0 1.00000000 1.00000000 1.00000000
H 13.41319083 34.20558047 -3.26711253 139 5 0 1.00000000 1.00000000 1.00000000
H 13.68659663 35.45999168 -2.20155371 140 5 0 1.00000000 1.00000000 1.00000000
H 13.92104416 36.50643010 -5.02717443 141 5 0 1.00000000 1.00000000 1.00000000
H 12.98970046 37.24460269 -3.69337001 142 5 0 1.00000000 1.00000000 1.00000000
H 11.89686702 34.79962763 -5.08452587 143 5 0 1.00000000 1.00000000 1.00000000
H 11.28519554 36.42639315 -5.30641579 144 5 0 1.00000000 1.00000000 1.00000000
H 11.40368450 34.84001096 -2.84925224 145 5 0 1.00000000 1.00000000 1.00000000
H 9.98332667 35.01985806 -3.65125262 146 5 0 1.00000000 1.00000000 1.00000000
H 10.15467344 37.51679983 -3.11940777 147 5 0 1.00000000 1.00000000 1.00000000
H 11.60252520 37.42030303 -2.31001615 148 5 0 1.00000000 1.00000000 1.00000000
H 10.05217268 37.52200107 -0.64371888 149 5 0 1.00000000 1.00000000 1.00000000
H 10.24686957 35.73852032 -0.66068638 150 5 0 1.00000000 1.00000000 1.00000000
H 8.09747169 36.08411228 -2.47371789 151 5 0 1.00000000 1.00000000 1.00000000
H 7.76572070 37.45871979 -1.25320216 152 5 0 1.00000000 1.00000000 1.00000000
H 7.82360009 35.82242149 -0.68798895 153 5 0 1.00000000 1.00000000 1.00000000
C 13.75901555 47.26480124 40.31355994 154 6 0 0.56500000 0.56500000 0.56500000
C 13.09723808 46.04435394 39.55999230 155 6 0 0.56500000 0.56500000 0.56500000
C 13.33584565 44.78941260 40.42820105 156 6 0 0.56500000 0.56500000 0.56500000
C 13.09168668 43.39087855 39.72777645 157 6 0 0.56500000 0.56500000 0.56500000
C 13.86091947 43.41153884 38.39653524 158 6 0 0.56500000 0.56500000 0.56500000
C 13.87659794 42.08124527 37.63291178 159 6 0 0.56500000 0.56500000 0.56500000
C 14.77453050 42.28939555 36.33588863 160 6 0 0.56500000 0.56500000 0.56500000
H 14.78711188 47.15672772 40.28037834 161 6 0 1.00000000 1.00000000 1.00000000
H 13.47263598 47.32321573 41.34083799 162 6 0 1.00000000 1.00000000 1.00000000
H 13.41885503 48.24313949 39.84469819 163 6 0 1.00000000 1.00000000 1.00000000
H 13.50744068 45.93318669 38.54036904 164 6 0 1.00000000 1.00000000 1.00000000
H 11.97637818 46.20426262 39.49300232 165 6 0 1.00000000 1.00000000 1.00000000
H 12.90893255 44.94674262 41.44167369 166 6 0 1.00000000 1.00000000 1.00000000
H 14.43099633 44.75773363 40.67388596 167 6 0 1.00000000 1.00000000 1.00000000
H 12.00977994 43.21481092 39.55125395 168 6 0 1.00000000 1.00000000 1.00000000
H 13.41640671 42.56384006 40.35964933 169 6 0 1.00000000 1.00000000 1.00000000
H 14.83766770 43.50548956 38.68325566 170 6 0 1.00000000 1.00000000 1.00000000
H 13.50124492 44.17956397 37.76984847 171 6 0 1.00000000 1.00000000 1.00000000
H 12.85295499 41.80371377 37.35126992 172 6 0 1.00000000 1.00000000 1.00000000
H 14.32049021 41.30759458 38.28089254 173 6 0 1.00000000 1.00000000 1.00000000
H 15.78644126 42.50362440 36.64475579 174 6 0 1.00000000 1.00000000 1.00000000
H 14.37727695 43.07710995 35.73244555 175 6 0 1.00000000 1.00000000 1.00000000
H 14.71987986 41.38497993 35.71412633 176 6 0 1.00000000 1.00000000 1.00000000
C 22.62958371 41.19915697 8.00593541 177 7 0 0.56500000 0.56500000 0.56500000
C 22.09381023 42.45537236 7.28897399 178 7 0 0.56500000 0.56500000 0.56500000
C 20.83103195 42.14865214 6.49283875 179 7 0 0.56500000 0.56500000 0.56500000
C 20.21512773 43.40234023 5.80775967 180 7 0 0.56500000 0.56500000 0.56500000
C 21.13076028 44.26353811 4.90336034 181 7 0 0.56500000 0.56500000 0.56500000
C 20.30213154 45.36449458 4.23246583 182 7 0 0.56500000 0.56500000 0.56500000
C 19.37579587 44.82864947 3.12937853 183 7 0 0.56500000 0.56500000 0.56500000
H 22.41219670 40.26513288 7.48212213 184 7 0 1.00000000 1.00000000 1.00000000
H 22.14480547 41.04725668 9.03000637 185 7 0 1.00000000 1.00000000 1.00000000
H 23.68529558 41.33630846 8.26844247 186 7 0 1.00000000 1.00000000 1.00000000
H 22.90849378 42.85847465 6.57757482 187 7 0 1.00000000 1.00000000 1.00000000
H 21.85274256 43.31123074 7.98930989 188 7 0 1.00000000 1.00000000 1.00000000
H 20.10263404 41.67773327 7.10685902 189 7 0 1.00000000 1.00000000 1.00000000
H 21.05484841 41.51171054 5.62230657 190 7 0 1.00000000 1.00000000 1.00000000
H 19.74042392 43.97331069 6.63403698 191 7 0 1.00000000 1.00000000 1.00000000
H 19.33003099 43.00696484 5.32177156 192 7 0 1.00000000 1.00000000 1.00000000
H 21.57796287 43.66905024 4.16383179 193 7 0 1.00000000 1.00000000 1.00000000
H 21.98657104 44.76695377 5.41809084 194 7 0 1.00000000 1.00000000 1.00000000
H 21.02319441 46.01860034 3.66782827 195 7 0 1.00000000 1.00000000 1.00000000
H 19.87640845 45.94684760 5.01541180 196 7 0 1.00000000 1.00000000 1.00000000
H 18.73913443 43.99576744 3.46344305 197 7 0 1.00000000 1.00000000 1.00000000
H 20.03410666 44.58336919 2.32192428 198 7 0 1.00000000 1.00000000 1.00000000
H 18.75989150 45.65323741 2.73802179 199 7 0 1.00000000 1.00000000 1.00000000
C 39.89381882 41.12906925 11.07748454 200 8 0 0.56500000 0.56500000 0.56500000
C 38.82552871 42.13870017 10.85210809 201 8 0 0.56500000 0.56500000 0.56500000
C 37.45625827 41.45378247 10.74011145 202 8 0 0.56500000 0.56500000 0.56500000
C 36.27525890 42.55969332 10.88416148 203 8 0 0.56500000 0.56500000 0.56500000
C 34.84914188 42.01009834 10.91860271 204 8 0 0.56500000 0.56500000 0.56500000
C 33.71613487 43.03364588 10.69272780 205 8 0 0.56500000 0.56500000 0.56500000
C 33.76813935 43.69589440 9.31747673 206 8 0 0.56500000 0.56500000 0.56500000
H 40.87479277 41.60199587 11.31349409 207 8 0 1.00000000 1.00000000 1.00000000
H 40.02691621 40.59057275 10.19749108 208 8 0 1.00000000 1.00000000 1.00000000
H 39.67728597 40.37842312 11.87066897 209 8 0 1.00000000 1.00000000 1.00000000
H 39.04043967 42.75996369 9.98643401 210 8 0 1.00000000 1.00000000 1.00000000
H 38.75771985 42.81018276 11.73412459 211 8 0 1.00000000 1.00000000 1.00000000
H 37.36213301 40.69855919 11.52338412 212 8 0 1.00000000 1.00000000 1.00000000
H 37.22137514 40.98903105 9.79802261 213 8 0 1.00000000 1.00000000 1.00000000
H 36.46865379 43.21644543 10.06334799 214 8 0 1.00000000 1.00000000 1.00000000
H 36.40632512 43.19346147 11.83218672 215 8 0 1.00000000 1.00000000 1.00000000
H 34.75042249 41.64219019 11.92863024 216 8 0 1.00000000 1.00000000 1.00000000
H 34.70118603 41.19991890 10.17737789 217 8 0 1.00000000 1.00000000 1.00000000
H 33.65577303 43.77370039 11.54362727 218 8 0 1.00000000 1.00000000 1.00000000
H 32.77987041 42.46775068 10.83072692 219 8 0 1.00000000 1.00000000 1.00000000
H 33.61221646 43.02915346 8.47343915 220 8 0 1.00000000 1.00000000 1.00000000
H 34.66715923 44.20375878 9.12312979 221 8 0 1.00000000 1.00000000 1.00000000
H 32.99132269 44.48121039 9.08066120 222 8 0 1.00000000 1.00000000 1.00000000
C 10.51966443 40.07418789 27.72206936 223 9 0 0.56500000 0.56500000 0.56500000
C 10.81045722 40.32559554 26.19424764 224 9 0 0.56500000 0.56500000 0.56500000
C 10.75269125 39.11258465 25.27477160 225 9 0 0.56500000 0.56500000 0.56500000
C 9.29096474 38.64294862 25.13751652 226 9 0 0.56500000 0.56500000 0.56500000
C 8.51930439 39.33547996 24.02250207 227 9 0 0.56500000 0.56500000 0.56500000
C 7.03446403 38.94980801 23.91288509 228 9 0 0.56500000 0.56500000 0.56500000
C 6.54649732 39.33803070 22.49641799 229 9 0 0.56500000 0.56500000 0.56500000
H 10.25340248 41.05456353 28.19101711 230 9 0 1.00000000 1.00000000 1.00000000
H 11.37005865 39.63404982 28.20491535 231 9 0 1.00000000 1.00000000 1.00000000
H 9.65719145 39.48086715 27.98938103 232 9 0 1.00000000 1.00000000 1.00000000
H 11.74950563 40.77253630 26.16611540 233 9 0 1.00000000 1.00000000 1.00000000
H 10.15526302 41.11385093 25.80859460 234 9 0 1.00000000 1.00000000 1.00000000
H 11.31578142 38.29962284 25.70462169 235 9 0 1.00000000 1.00000000 1.00000000
H 11.10909793 39.35800598 24.25487519 236 9 0 1.00000000 1.00000000 1.00000000
H 8.79196307 38.77321712 26.06657613 237 9 0 1.00000000 1.00000000 1.00000000
H 9.42444626 37.58804256 24.86607895 238 9 0 1.00000000 1.00000000 1.00000000
H 8.94496760 39.05824869 23.04986024 239 9 0 1.00000000 1.00000000 1.00000000
H 8.64020633 40.44264411 24.15125925 240 9 0 1.00000000 1.00000000 1.00000000
H 6.53209054 39.55651156 24.73135130 241 9 0 1.00000000 1.00000000 1.00000000
H 6.83915323 37.89502874 24.16963332 242 9 0 1.00000000 1.00000000 1.00000000
H 5.46245540 39.36387174 22.37841875 243 9 0 1.00000000 1.00000000 1.00000000
H 6.94078005 38.64890107 21.76362637 244 9 0 1.00000000 1.00000000 1.00000000
H 6.77237245 40.33353319 22.26968409 245 9 0 1.00000000 1.00000000 1.00000000
C 34.98443832 44.00987715 29.79772523 246 10 0 0.56500000 0.56500000 0.56500000
C 35.87113323 45.09591536 30.38010253 247 10 0 0.56500000 0.56500000 0.56500000
C 37.07213854 44.40799576 31.20744491 248 10 0 0.56500000 0.56500000 0.56500000
C 37.52597746 45.49520958 32.38572374 249 10 0 0.56500000 0.56500000 0.56500000
C 37.87374026 46.91766730 31.92426417 250 10 0 0.56500000 0.56500000 0.56500000
C 39.00106943 46.98217661 30.86408112 251 10 0 0.56500000 0.56500000 0.56500000
C 39.32443642 48.46625967 30.56730854 252 10 0 0.56500000 0.56500000 0.56500000
H 35.72219392 43.36089479 29.22086084 253 10 0 1.00000000 1.00000000 1.00000000
H 34.34332259 44.57316388 29.17361095 254 10 0 1.00000000 1.00000000 1.00000000
H 34.60056603 43.32151367 30.56194699 255 10 0 1.00000000 1.00000000 1.00000000
H 35.19446752 45.54910821 31.10522772 256 10 0 1.00000000 1.00000000 1.00000000
H 36.25819855 45.74379760 29.53358247 257 10 0 1.00000000 1.00000000 1.00000000
H 37.92518695 44.12414652 30.55994350 258 10 0 1.00000000 1.00000000 1.00000000
H 36.63649642 43.57272022 31.74779766 259 10 0 1.00000000 1.00000000 1.00000000
H 38.37036159 45.06123545 32.87465104 260 10 0 1.00000000 1.00000000 1.00000000
H 36.61038602 45.55169887 32.98240775 261 10 0 1.00000000 1.00000000 1.00000000
H 38.15383757 47.59757106 32.68599918 262 10 0 1.00000000 1.00000000 1.00000000
H 36.96360764 47.34039435 31.38369513 263 10 0 1.00000000 1.00000000 1.00000000
H 38.59935944 46.46505866 30.01378785 264 10 0 1.00000000 1.00000000 1.00000000
H 39.89215243 46.60876668 31.27308250 265 10 0 1.00000000 1.00000000 1.00000000
H 38.59063401 49.06037095 30.06162424 266 10 0 1.00000000 1.00000000 1.00000000
H 40.16145449 48.46940589 29.84183606 267 10 0 1.00000000 1.00000000 1.00000000
H 39.65785299 49.15657134 31.42173764 268 10 0 1.00000000 1.00000000 1.00000000
C 18.66571254 23.10781526 8.72773865 269 11 0 0.56500000 0.56500000 0.56500000
C 17.59775526 23.56992124 7.68202094 270 11 0 0.56500000 0.56500000 0.56500000
C 17.34592870 22.59426115 6.60090769 271 11 0 0.56500000 0.56500000 0.56500000
C 16.77837853 23.31163810 5.41937558 272 11 0 0.56500000 0.56500000 0.56500000
C 15.24679402 23.63468105 5.63188139 273 11 0 0.56500000 0.56500000 0.56500000
C 14.53481428 23.98500636 4.37752551 274 11 0 0.56500000 0.56500000 0.56500000
C 13.08278445 24.54919440 4.50593203 275 11 0 0.56500000 0.56500000 0.56500000
H 19.65114526 22.90220141 8.20664174 276 11 0 1.00000000 1.00000000 1.00000000
H 18.24119710 22.20026361 9.17913967 277 11 0 1.00000000 1.00000000 1.00000000
H 18.69071570 23.85865557 9.51928807 278 11 0 1.00000000 1.00000000 1.00000000
H 17.91452991 24.57386220 7.25588711 279 11 0 1.00000000 1.00000000 1.00000000
H 16.61409478 23.77561911 8.25466812 280 11 0 1.00000000 1.00000000 1.00000000
H 16.62290168 21.77986950 6.83902531 281 11 0 1.00000000 1.00000000 1.00000000
H 18.28534811 21.97426489 6.43339872 282 11 0 1.00000000 1.00000000 1.00000000
H 16.82234774 22.73839965 4.46805716 283 11 0 1.00000000 1.00000000 1.00000000
H 17.31756840 24.19961096 5.17343332 284 11 0 1.00000000 1.00000000 1.00000000
H 15.23525093 24.44815245 6.36608450 285 11 0 1.00000000 1.00000000 1.00000000
H 14.80300702 22.70474323 6.11383508 286 11 0 1.00000000 1.00000000 1.00000000
H 14.54918236 23.06195579 3.69326334 287 11 0 1.00000000 1.00000000 1.00000000
H 15.14667578 24.79103392 3.85597133 288 11 0 1.00000000 1.00000000 1.00000000
H 12.64404904 24.67563906 3.51999217 289 11 0 1.00000000 1.00000000 1.00000000
H 13.09712021 25.51153950 5.02381917 290 11 0 1.00000000 1.00000000 1.00000000
H 12.53210200 23.79823951 5.08439654 291 11 0 1.00000000 1.00000000 1.00000000
C 15.96572618 28.39889256 -4.70151267 292 12 0 0.56500000 0.56500000 0.56500000
C 16.73075737 27.72613297 -3.50200589 293 12 0 0.56500000 0.56500000 0.56500000
C 17.01250905 26.26482495 -3.69889382 294 12 0 0.56500000 0.56500000 0.56500000
C 17.90808626 25.59371875 -2.63008107 295 12 0 0.56500000 0.56500000 0.56500000
C 18.23857217 24.16006332 -2.87882051 296 12 0 0.56500000 0.56500000 0.56500000
C 17.50521096 23.21106568 -1.95619429 297 12 0 0.56500000 0.56500000 0.56500000
C 17.76688947 21.65319124 -2.19374035 298 12 0 0.56500000 0.56500000 0.56500000
H 15.10040297 27.74986954 -4.86116023 299 12 0 1.00000000 1.00000000 1.00000000
H 16.66636062 28.39851084 -5.53336385 300 12 0 1.00000000 1.00000000 1.00000000
H 15.70588338 29.41114297 -4.52233243 301 12 0 1.00000000 1.00000000 1.00000000
H 16.10912210 27.83495327 -2.62026982 302 12 0 1.00000000 1.00000000 1.00000000
H 17.61152067 28.32737494 -3.23363846 303 12 0 1.00000000 1.00000000 1.00000000
H 17.43058547 26.12224713 -4.68742187 304 12 0 1.00000000 1.00000000 1.00000000
H 16.05933134 25.75426672 -3.63914256 305 12 0 1.00000000 1.00000000 1.00000000
H 17.33074288 25.50027190 -1.69925820 306 12 0 1.00000000 1.00000000 1.00000000
H 18.80901986 26.16066846 -2.41424325 307 12 0 1.00000000 1.00000000 1.00000000
H 19.30409856 23.92051825 -2.61327771 308 12 0 1.00000000 1.00000000 1.00000000
H 18.04471181 23.85703719 -3.93450012 309 12 0 1.00000000 1.00000000 1.00000000
H 16.40618221 23.42324844 -1.90520896 310 12 0 1.00000000 1.00000000 1.00000000
H 17.83716617 23.40984071 -0.87433619 311 12 0 1.00000000 1.00000000 1.00000000
H 18.84768596 21.49239131 -2.03226090 312 12 0 1.00000000 1.00000000 1.00000000
H 17.55046331 21.44429327 -3.27272642 313 12 0 1.00000000 1.00000000 1.00000000
H 17.23279907 20.93152472 -1.57891298 314 12 0 1.00000000 1.00000000 1.00000000
C 34.40359347 10.59292569 29.99811803 315 13 0 0.56500000 0.56500000 0.56500000
C 34.04889471 10.37093635 28.52998545 316 13 0 0.56500000 0.56500000 0.56500000
C 35.22950434 10.08192100 27.66684667 317 13 0 0.56500000 0.56500000 0.56500000
C 34.94745169 9.68659328 26.19342142 318 13 0 0.56500000 0.56500000 0.56500000
C 36.17659615 9.93994031 25.39962441 319 13 0 0.56500000 0.56500000 0.56500000
C 36.07684357 9.75227733 23.84752636 320 13 0 0.56500000 0.56500000 0.56500000
C 37.47686191 9.81482306 23.26882068 321 13 0 0.56500000 0.56500000 0.56500000
H 34.24711333 9.75417563 30.65981700 322 13 0 1.00000000 1.00000000 1.00000000
H 33.75923525 11.39167814 30.46437379 323 13 0 1.00000000 1.00000000 1.00000000
H 35.40773048 10.98155385 30.12045574 324 13 0 1.00000000 1.00000000 1.00000000
H 33.64910424 11.24300175 28.03057349 325 13 0 1.00000000 1.00000000 1.00000000
H 33.25896787 9.52632766 28.45565301 326 13 0 1.00000000 1.00000000 1.00000000
H 35.71421448 9.19150645 28.13865722 327 13 0 1.00000000 1.00000000 1.00000000
H 35.96553375 10.84452575 27.77482262 328 13 0 1.00000000 1.00000000 1.00000000
H 34.07666927 10.32833625 25.92131034 329 13 0 1.00000000 1.00000000 1.00000000
H 34.52554836 8.65727605 26.13809530 330 13 0 1.00000000 1.00000000 1.00000000
H 36.97970758 9.28779915 25.81983352 331 13 0 1.00000000 1.00000000 1.00000000
H 36.54817331 10.95284309 25.43768810 332 13 0 1.00000000 1.00000000 1.00000000
H 35.49678978 10.50718634 23.34051885 333 13 0 1.00000000 1.00000000 1.00000000
H 35.51801603 8.87209511 23.64353832 334 13 0 1.00000000 1.00000000 1.00000000
H 38.01580643 10.75514015 23.29225105 335 13 0 1.00000000 1.00000000 1.00000000
H 37.46792099 9.57854565 22.16796910 336 13 0 1.00000000 1.00000000 1.00000000
H 38.11403965 9.02496906 23.69698157 337 13 0 1.00000000 1.00000000 1.00000000
C 22.73953917 36.33096002 7.61662023 338 14 0 0.56500000 0.56500000 0.56500000
C 21.42962750 36.96472836 8.00695640 339 14 0 0.56500000 0.56500000 0.56500000
C 21.38449502 38.06097232 9.03799966 340 14 0 0.56500000 0.56500000 0.56500000
C 21.40878106 37.40994150 10.44576061 341 14 0 0.56500000 0.56500000 0.56500000
C 21.18530826 38.49055801 11.53258766 342 14 0 0.56500000 0.56500000 0.56500000
C 21.55582889 38.00460390 12.93615269 343 14 0 0.56500000 0.56500000 0.56500000
C 21.16881231 38.93134606 14.03847844 344 14 0 0.56500000 0.56500000 0.56500000
H 23.27036788 36.05551927 8.51088487 345 14 0 1.00000000 1.00000000 1.00000000
H 23.49663383 37.00208564 7.19129257 346 14 0 1.00000000 1.00000000 1.00000000
H 22.63933970 35.57543997 6.86189064 347 14 0 1.00000000 1.00000000 1.00000000
H 20.75654638 36.16739923 8.34999078 348 14 0 1.00000000 1.00000000 1.00000000
H 20.96883682 37.32549027 7.07000702 349 14 0 1.00000000 1.00000000 1.00000000
H 20.54299691 38.66765211 8.99067569 350 14 0 1.00000000 1.00000000 1.00000000
H 22.24143134 38.76503529 8.92291028 351 14 0 1.00000000 1.00000000 1.00000000
H 22.39673939 36.97995309 10.58982620 352 14 0 1.00000000 1.00000000 1.00000000
H 20.57792790 36.68898492 10.36408892 353 14 0 1.00000000 1.00000000 1.00000000
H 20.12747027 38.75515276 11.44049707 354 14 0 1.00000000 1.00000000 1.00000000
H 21.77592974 39.34524305 11.29608461 355 14 0 1.00000000 1.00000000 1.00000000
H 22.60338480 37.89292041 12.99784380 356 14 0 1.00000000 1.00000000 1.00000000
H 21.16571809 37.02862730 13.10395174 357 14 0 1.00000000 1.00000000 1.00000000
H 20.15638014 39.26114694 14.03669877 358 14 0 1.00000000 1.00000000 1.00000000
H 21.84976854 39.70843365 14.11786465 359 14 0 1.00000000 1.00000000 1.00000000
H 21.25408885 38.37885498 15.03059810 360 14 0 1.00000000 1.00000000 1.00000000
C 36.87651890 30.23589716 6.07303970 361 15 0 0.56500000 0.56500000 0.56500000
C 37.19206846 29.95400575 7.59177741 362 15 0 0.56500000 0.56500000 0.56500000
C 38.72980195 30.09810528 7.89913109 363 15 0 0.56500000 0.56500000 0.56500000
C 39.73337730 29.10950628 7.29059656 364 15 0 0.56500000 0.56500000 0.56500000
C 39.66450348 27.75413412 7.88735693 365 15 0 0.56500000 0.56500000 0.56500000
C 40.76340867 26.82290126 7.44955332 366 15 0 0.56500000 0.56500000 0.56500000
C 42.17077011 26.99381034 8.13291978 367 15 0 0.56500000 0.56500000 0.56500000
H 37.33108373 31.16949519 5.73918304 368 15 0 1.00000000 1.00000000 1.00000000
H 35.82641946 30.26657563 5.88084206 369 15 0 1.00000000 1.00000000 1.00000000
H 37.26662631 29.47484179 5.33220076 370 15 0 1.00000000 1.00000000 1.00000000
H 36.96451210 28.84481029 7.81055558 371 15 0 1.00000000 1.00000000 1.00000000
H 36.47838483 30.62565844 8.18064611 372 15 0 1.00000000 1.00000000 1.00000000
H 38.91418371 29.99125472 8.99826421 373 15 0 1.00000000 1.00000000 1.00000000
H 39.03071003 31.08571314 7.59522163 374 15 0 1.00000000 1.00000000 1.00000000
H 40.76036772 29.49372668 7.42013538 375 15 0 1.00000000 1.00000000 1.00000000
H 39.56913923 29.10529435 6.15402399 376 15 0 1.00000000 1.00000000 1.00000000
H 38.68537535 27.35801354 7.68334839 377 15 0 1.00000000 1.00000000 1.00000000
H 39.73204614 27.85089434 8.97368131 378 15 0 1.00000000 1.00000000 1.00000000
H 40.99111194 26.81941584 6.39584556 379 15 0 1.00000000 1.00000000 1.00000000
H 40.48382692 25.72637690 7.66937346 380 15 0 1.00000000 1.00000000 1.00000000
H 42.67525555 27.99751898 8.08190142 381 15 0 1.00000000 1.00000000 1.00000000
H 42.89852666 26.39695239 7.60589754 382 15 0 1.00000000 1.00000000 1.00000000
H 42.16476278 26.73191377 9.21307373 383 15 0 1.00000000 1.00000000 1.00000000
C 15.57500336 45.28011130 7.01604035 384 16 0 0.56500000 0.56500000 0.56500000
C 16.11788774 43.85937777 7.20584176 385 16 0 0.56500000 0.56500000 0.56500000
C 16.64955651 43.70094113 8.61506864 386 16 0 0.56500000 0.56500000 0.56500000
C 17.73779365 42.59900679 8.82561296 387 16 0 0.56500000 0.56500000 0.56500000
C 18.21792585 42.39852687 10.27776893 388 16 0 0.56500000 0.56500000 0.56500000
C 17.32339692 41.62015836 11.29260518 389 16 0 0.56500000 0.56500000 0.56500000
C 18.14121365 41.14418237 12.49822443 390 16 0 0.56500000 0.56500000 0.56500000
H 16.20449233 46.10410132 7.31232197 391 16 0 1.00000000 1.00000000 1.00000000
H 14.70853360 45.43668904 7.66236196 392 16 0 1.00000000 1.00000000 1.00000000
H 15.31658666 45.42920264 5.95051873 393 16 0 1.00000000 1.00000000 1.00000000
H 16.90658388 43.83440976 6.47387254 394 16 0 1.00000000 1.00000000 1.00000000
H 15.33980560 43.09366703 6.96086184 395 16 0 1.00000000 1.00000000 1.00000000
H 15.88647223 43.36450321 9.38373638 396 16 0 1.00000000 1.00000000 1.00000000
H 17.00493882 44.67185384 9.00063372 397 16 0 1.00000000 1.00000000 1.00000000
H 18.56965182 42.90854835 8.14749346 398 16 0 1.00000000 1.00000000 1.00000000
H 17.32008608 41.68892380 8.44334317 399 16 0 1.00000000 1.00000000 1.00000000
H 18.52344185 43.31375954 10.82020544 400 16 0 1.00000000 1.00000000 1.00000000
H 19.09667225 41.80806422 10.13432643 401 16 0 1.00000000 1.00000000 1.00000000
H 16.94411475 40.71475605 10.72859171 402 16 0 1.00000000 1.00000000 1.00000000
H 16.53291456 42.29687402 11.59296061 403 16 0 1.00000000 1.00000000 1.00000000
H 17.46703205 41.08675297 13.38400899 404 16 0 1.00000000 1.00000000 1.00000000
H 19.02817140 41.69236057 12.81577490 405 16 0 1.00000000 1.00000000 1.00000000
H 18.44727953 40.08606673 12.36092462 406 16 0 1.00000000 1.00000000 1.00000000
C -1.91086750 8.93595039 4.25364338 407 17 0 0.56500000 0.56500000 0.56500000
C -1.01899190 10.24087962 4.51184906 408 17 0 0.56500000 0.56500000 0.56500000
C 0.49887074 10.05911543 4.04570216 409 17 0 0.56500000 0.56500000 0.56500000
C 1.38726599 11.07752737 4.63178996 410 17 0 0.56500000 0.56500000 0.56500000
C 2.81539044 10.99779888 4.14467528 411 17 0 0.56500000 0.56500000 0.56500000
C 3.08037191 10.55948104 2.74126717 412 17 0 0.56500000 0.56500000 0.56500000
C 4.55380085 10.54598366 2.29562173 413 17 0 0.56500000 0.56500000 0.56500000
H -1.31618681 8.03900494 4.36890754 414 17 0 1.00000000 1.00000000 1.00000000
H -2.33439901 9.00060487 3.28277758 415 17 0 1.00000000 1.00000000 1.00000000
H -2.85105603 8.98753876 4.91088297 416 17 0 1.00000000 1.00000000 1.00000000
H -0.96026076 10.37913894 5.56201642 417 17 0 1.00000000 1.00000000 1.00000000
H -1.37999024 11.21685707 4.14297291 418 17 0 1.00000000 1.00000000 1.00000000
H 0.59278959 10.08334663 2.95357351 419 17 0 1.00000000 1.00000000 1.00000000
H 0.68996552 9.01166372 4.35132361 420 17 0 1.00000000 1.00000000 1.00000000
H 1.41303127 11.09356438 5.72278135 421 17 0 1.00000000 1.00000000 1.00000000
H 0.90839301 12.02872202 4.38702297 422 17 0 1.00000000 1.00000000 1.00000000
H 3.51775571 10.56006309 4.75013461 423 17 0 1.00000000 1.00000000 1.00000000
H 3.19229122 12.01013679 4.11627645 424 17 0 1.00000000 1.00000000 1.00000000
H 2.47095010 11.27397492 2.13321323 425 17 0 1.00000000 1.00000000 1.00000000
H 2.63521327 9.54429055 2.61459642 426 17 0 1.00000000 1.00000000 1.00000000
H 4.98994878 9.55876452 2.21917984 427 17 0 1.00000000 1.00000000 1.00000000
H 5.14929526 11.07937858 3.05560250 428 17 0 1.00000000 1.00000000 1.00000000
H 4.69904405 11.03016268 1.29683995 429 17 0 1.00000000 1.00000000 1.00000000
C 16.25555745 37.94678229 19.73904576 430 18 0 0.56500000 0.56500000 0.56500000
C 17.50524140 38.44803047 19.12036977 431 18 0 0.56500000 0.56500000 0.56500000
C 17.14716690 39.76030645 18.40331017 432 18 0 0.56500000 0.56500000 0.56500000
C 18.33693518 40.41706387 17.61949865 433 18 0 0.56500000 0.56500000 0.56500000
C 19.30998679 41.23670015 18.45214785 434 18 0 0.56500000 0.56500000 0.56500000
C 20.60137956 41.66732211 17.73857335 435 18 0 0.56500000 0.56500000 0.56500000
C 20.27704066 42.54050104 16.49884604 436 18 0 0.56500000 0.56500000 0.56500000
H 16.38529343 36.96339035 20.17909881 437 18 0 1.00000000 1.00000000 1.00000000
H 15.44512309 37.95362625 18.99458367 438 18 0 1.00000000 1.00000000 1.00000000
H 16.02311358 38.61548669 20.57576474 439 18 0 1.00000000 1.00000000 1.00000000
H 18.01038108 37.78526144 18.40925338 440 18 0 1.00000000 1.00000000 1.00000000
H 18.28639406 38.65122777 19.83596816 441 18 0 1.00000000 1.00000000 1.00000000
H 16.71560983 40.50846386 19.07384335 442 18 0 1.00000000 1.00000000 1.00000000
H 16.36961361 39.39712055 17.64868425 443 18 0 1.00000000 1.00000000 1.00000000
H 17.92240561 40.96719813 16.78008069 444 18 0 1.00000000 1.00000000 1.00000000
H 18.89732792 39.59722713 17.17042271 445 18 0 1.00000000 1.00000000 1.00000000
H 19.54229885 40.67755123 19.33767012 446 18 0 1.00000000 1.00000000 1.00000000
H 18.89871670 42.16118729 18.87289931 447 18 0 1.00000000 1.00000000 1.00000000
H 21.19407605 40.89686747 17.25645937 448 18 0 1.00000000 1.00000000 1.00000000
H 21.21981960 42.30379869 18.36047634 449 18 0 1.00000000 1.00000000 1.00000000
H 19.59576197 43.35103535 16.80088666 450 18 0 1.00000000 1.00000000 1.00000000
H 19.82217617 41.87663242 15.71470482 451 18 0 1.00000000 1.00000000 1.00000000
H 21.13575799 42.99571680 16.04032826 452 18 0 1.00000000 1.00000000 1.00000000
C 41.40056549 44.87536889 27.96020430 453 19 0 0.56500000 0.56500000 0.56500000
C 40.85247131 44.25787128 26.66683183 454 19 0 0.56500000 0.56500000 0.56500000
C 39.61446621 43.44415159 26.84718762 455 19 0 0.56500000 0.56500000 0.56500000
C 39.81216420 42.15785253 27.68694572 456 19 0 0.56500000 0.56500000 0.56500000
C 38.50813337 41.38171512 27.81406888 457 19 0 0.56500000 0.56500000 0.56500000
C 38.59523848 39.99700665 28.51038621 458 19 0 0.56500000 0.56500000 0.56500000
C 37.32184302 39.16036198 28.36102501 459 19 0 0.56500000 0.56500000 0.56500000
H 40.80027094 45.64611521 28.36236175 460 19 0 1.00000000 1.00000000 1.00000000
H 42.34634277 45.32867716 27.71814686 461 19 0 1.00000000 1.00000000 1.00000000
H 41.51909345 44.07704777 28.62056534 462 19 0 1.00000000 1.00000000 1.00000000
H 41.65738063 43.65977408 26.27140326 463 19 0 1.00000000 1.00000000 1.00000000
H 40.67475465 44.98535556 25.87844906 464 19 0 1.00000000 1.00000000 1.00000000
H 39.08445581 43.17891994 25.91593570 465 19 0 1.00000000 1.00000000 1.00000000
H 38.86115601 44.08601467 27.37756207 466 19 0 1.00000000 1.00000000 1.00000000
H 40.19101968 42.51904613 28.67632771 467 19 0 1.00000000 1.00000000 1.00000000
H 40.60650694 41.53876856 27.18985392 468 19 0 1.00000000 1.00000000 1.00000000
H 38.10166233 41.26444822 26.79819325 469 19 0 1.00000000 1.00000000 1.00000000
H 37.82786952 42.09152477 28.29558679 470 19 0 1.00000000 1.00000000 1.00000000
H 38.79581221 40.09376350 29.60254719 471 19 0 1.00000000 1.00000000 1.00000000
H 39.38855574 39.45281570 27.96853965 472 19 0 1.00000000 1.00000000 1.00000000
H 37.08736607 39.03915423 27.33066310 473 19 0 1.00000000 1.00000000 1.00000000
H 36.45372357 39.54466419 28.94835641 474 19 0 1.00000000 1.00000000 1.00000000
H 37.64475295 38.16197629 28.77766932 475 19 0 1.00000000 1.00000000 1.00000000
C 27.48206101 52.10698960 37.69377383 476 20 0 0.56500000 0.56500000 0.56500000
C 26.90624761 50.67326454 37.86282675 477 20 0 0.56500000 0.56500000 0.56500000
C 27.26710280 50.17034785 39.18107624 478 20 0 0.56500000 0.56500000 0.56500000
C 28.72250411 49.75047455 39.39173907 479 20 0 0.56500000 0.56500000 0.56500000
C 29.14837051 48.55392263 38.53112174 480 20 0 0.56500000 0.56500000 0.56500000
C 30.62434497 48.00293109 38.73882168 481 20 0 0.56500000 0.56500000 0.56500000
C 30.75118244 46.51265891 38.34816465 482 20 0 0.56500000 0.56500000 0.56500000
H 27.24898201 52.52072347 36.68157958 483 20 0 1.00000000 1.00000000 1.00000000
H 28.53868052 52.22653040 37.99203847 484 20 0 1.00000000 1.00000000 1.00000000
H 26.93216245 52.70927665 38.40078603 485 20 0 1.00000000 1.00000000 1.00000000
H 27.14688715 49.90350223 37.02579650 486 20 0 1.00000000 1.00000000 1.00000000
H 25.78593007 50.81165854 37.80127793 487 20 0 1.00000000 1.00000000 1.00000000
H 26.68375608 49.21469958 39.30992630 488 20 0 1.00000000 1.00000000 1.00000000
H 27.00069087 50.87185302 40.02593457 489 20 0 1.00000000 1.00000000 1.00000000
H 28.81065733 49.52953427 40.47518632 490 20 0 1.00000000 1.00000000 1.00000000
H 29.43093910 50.58302228 39.11048319 491 20 0 1.00000000 1.00000000 1.00000000
H 29.07325571 48.65104034 37.44418500 492 20 0 1.00000000 1.00000000 1.00000000
H 28.46596651 47.65114800 38.78287697 493 20 0 1.00000000 1.00000000 1.00000000
H 30.88843826 48.19505713 39.70305831 494 20 0 1.00000000 1.00000000 1.00000000
H 31.19884298 48.57280524 38.00284393 495 20 0 1.00000000 1.00000000 1.00000000
H 29.94230468 45.86527838 38.68094645 496 20 0 1.00000000 1.00000000 1.00000000
H 31.69440767 46.03031001 38.80742742 497 20 0 1.00000000 1.00000000 1.00000000
H 30.73236607 46.37101382 37.25224516 498 20 0 1.00000000 1.00000000 1.00000000
C 6.36282696 28.56076613 42.63056723 499 21 0 0.56500000 0.56500000 0.56500000
C 5.65114828 30.00330272 42.43796261 500 21 0 0.56500000 0.56500000 0.56500000
C 6.67017477 31.18707388 42.19027876 501 21 0 0.56500000 0.56500000 0.56500000
C 7.68490988 30.97926566 41.05745058 502 21 0 0.56500000 0.56500000 0.56500000
C 7.08642772 30.47304102 39.71338009 503 21 0 0.56500000 0.56500000 0.56500000
C 8.00913381 30.53618141 38.49309570 504 21 0 0.56500000 0.56500000 0.56500000
C 8.98791863 29.38081409 38.60642615 505 21 0 0.56500000 0.56500000 0.56500000
H 7.00599822 28.50085137 43.48441305 506 21 0 1.00000000 1.00000000 1.00000000
H 6.85812805 28.31022277 41.73311900 507 21 0 1.00000000 1.00000000 1.00000000
H 5.52162914 27.87168377 42.81495823 508 21 0 1.00000000 1.00000000 1.00000000
H 5.15407161 30.09706357 43.37270082 509 21 0 1.00000000 1.00000000 1.00000000
H 4.96717423 29.95165856 41.62515178 510 21 0 1.00000000 1.00000000 1.00000000
H 7.23137143 31.33691615 43.19567826 511 21 0 1.00000000 1.00000000 1.00000000
H 6.13107847 32.09620173 41.95052977 512 21 0 1.00000000 1.00000000 1.00000000
H 8.39227622 30.20683471 41.38920905 513 21 0 1.00000000 1.00000000 1.00000000
H 8.27774378 31.86711721 40.79290348 514 21 0 1.00000000 1.00000000 1.00000000
H 6.12239915 31.04957665 39.60420070 515 21 0 1.00000000 1.00000000 1.00000000
H 6.80687788 29.43218664 39.81685896 516 21 0 1.00000000 1.00000000 1.00000000
H 8.49013288 31.46154045 38.50024359 517 21 0 1.00000000 1.00000000 1.00000000
H 7.39884000 30.54546560 37.59425936 518 21 0 1.00000000 1.00000000 1.00000000
H 8.51721135 28.37304733 38.37513336 519 21 0 1.00000000 1.00000000 1.00000000
H 9.31086017 29.40991417 39.69566317 520 21 0 1.00000000 1.00000000 1.00000000
H 9.96775929 29.58739105 38.17182288 521 21 0 1.00000000 1.00000000 1.00000000
C 27.08870486 36.43185043 33.56731721 522 22 0 0.56500000 0.56500000 0.56500000
C 28.40140334 36.87357825 33.07268970 523 22 0 0.56500000 0.56500000 0.56500000
C 28.71657555 36.48767257 31.71403453 524 22 0 0.56500000 0.56500000 0.56500000
C 30.25432646 36.65242776 31.35757783 525 22 0 0.56500000 0.56500000 0.56500000
C 30.76805485 36.10306297 29.96314325 526 22 0 0.56500000 0.56500000 0.56500000
C 32.23342613 36.01107932 29.72240638 527 22 0 0.56500000 0.56500000 0.56500000
C 32.87061250 34.86755845 30.56964232 528 22 0 0.56500000 0.56500000 0.56500000
H 26.90964014 35.36151998 33.48261856 529 22 0 1.00000000 1.00000000 1.00000000
H 26.18329901 36.82365873 33.06824878 530 22 0 1.00000000 1.00000000 1.00000000
H 27.00871221 36.57913424 34.63966296 531 22 0 1.00000000 1.00000000 1.00000000
H 29.19427364 36.33782142 33.66769420 532 22 0 1.00000000 1.00000000 1.00000000
H 28.73132909 37.88228877 33.22224407 533 22 0 1.00000000 1.00000000 1.00000000
H 28.16438528 37.02815571 30.90255770 534 22 0 1.00000000 1.00000000 1.00000000
H 28.53669569 35.45031750 31.54444513 535 22 0 1.00000000 1.00000000 1.00000000
H 30.76205875 36.10957555 32.19729766 536 22 0 1.00000000 1.00000000 1.00000000
H 30.46820051 37.68591036 31.42335910 537 22 0 1.00000000 1.00000000 1.00000000
H 30.33198245 36.82431749 29.36968924 538 22 0 1.00000000 1.00000000 1.00000000
H 30.31240895 35.16057129 29.84702018 539 22 0 1.00000000 1.00000000 1.00000000
H 32.75587075 36.94616642 29.84807102 540 22 0 1.00000000 1.00000000 1.00000000
H 32.43280539 35.75131803 28.66685074 541 22 0 1.00000000 1.00000000 1.00000000
H 32.99901362 35.11186880 31.61780852 542 22 0 1.00000000 1.00000000 1.00000000
H 33.83074549 34.62724952 30.15746302 543 22 0 1.00000000 1.00000000 1.00000000
H 32.23513263 33.98547126 30.47432583 544 22 0 1.00000000 1.00000000 1.00000000
C 10.25946886 23.53455440 15.89815339 545 23 0 0.56500000 0.56500000 0.56500000
C 11.07072438 23.27043194 17.20012767 546 23 0 0.56500000 0.56500000 0.56500000
C 11.34721494 21.76612875 17.41025524 547 23 0 0.56500000 0.56500000 0.56500000
C 12.17112124 21.46146232 18.68008251 548 23 0 0.56500000 0.56500000 0.56500000
C 12.51263836 20.02078577 18.93620679 549 23 0 0.56500000 0.56500000 0.56500000
C 13.45163292 19.74196717 20.17228008 550 23 0 0.56500000 0.56500000 0.56500000
C 13.82964618 18.28022914 20.11620880 551 23 0 0.56500000 0.56500000 0.56500000
H 10.74733960 23.15170693 14.94265358 552 23 0 1.00000000 1.00000000 1.00000000
H 9.79450713 24.50870810 15.61828759 553 23 0 1.00000000 1.00000000 1.00000000
H 9.37293881 22.76765320 15.90923527 554 23 0 1.00000000 1.00000000 1.00000000
H 10.48921083 23.66597054 18.11121646 555 23 0 1.00000000 1.00000000 1.00000000
H 12.00483448 23.84639081 17.31430360 556 23 0 1.00000000 1.00000000 1.00000000
H 11.95919013 21.36139576 16.64341193 557 23 0 1.00000000 1.00000000 1.00000000
H 10.38692809 21.30524927 17.52778251 558 23 0 1.00000000 1.00000000 1.00000000
H 11.62993647 21.93326306 19.57815413 559 23 0 1.00000000 1.00000000 1.00000000
H 13.11658268 22.04408125 18.69485285 560 23 0 1.00000000 1.00000000 1.00000000
H 13.24892372 19.70298351 18.19784767 561 23 0 1.00000000 1.00000000 1.00000000
H 11.56723714 19.36825595 18.94158453 562 23 0 1.00000000 1.00000000 1.00000000
H 12.93883537 20.00004083 21.12921792 563 23 0 1.00000000 1.00000000 1.00000000
H 14.31608810 20.35921728 20.07295607 564 23 0 1.00000000 1.00000000 1.00000000
H 13.06085717 17.58429337 20.43354829 565 23 0 1.00000000 1.00000000 1.00000000
H 14.57026689 18.18921591 20.87339331 566 23 0 1.00000000 1.00000000 1.00000000
H 14.17614013 17.86879478 19.16241140 567 23 0 1.00000000 1.00000000 1.00000000
C 3.35169343 32.41417976 41.56754321 568 24 0 0.56500000 0.56500000 0.56500000
C 2.54081441 33.65240643 41.26623617 569 24 0 0.56500000 0.56500000 0.56500000
C 3.37630679 34.97429620 41.14953617 570 24 0 0.56500000 0.56500000 0.56500000
C 4.37895522 34.88648615 40.00825188 571 24 0 0.56500000 0.56500000 0.56500000
C 5.19807916 36.19039337 39.87781968 572 24 0 0.56500000 0.56500000 0.56500000
C 6.47404823 36.00348655 38.97134611 573 24 0 0.56500000 0.56500000 0.56500000
C 7.62346605 35.42307770 39.81246626 574 24 0 0.56500000 0.56500000 0.56500000
H 3.70414621 32.09363848 40.64770180 575 24 0 1.00000000 1.00000000 1.00000000
H 2.79020992 31.58958617 42.01071347 576 24 0 1.00000000 1.00000000 1.00000000
H 4.24783247 32.60735077 42.21852264 577 24 0 1.00000000 1.00000000 1.00000000
H 1.69162687 33.90316403 41.89068584 578 24 0 1.00000000 1.00000000 1.00000000
H 2.10082119 33.49135216 40.24772411 579 24 0 1.00000000 1.00000000 1.00000000
H 3.91501296 34.99007088 42.10840188 580 24 0 1.00000000 1.00000000 1.00000000
H 2.64510865 35.76520873 41.10734376 581 24 0 1.00000000 1.00000000 1.00000000
H 3.78422253 34.74805376 39.09693912 582 24 0 1.00000000 1.00000000 1.00000000
H 5.07974947 34.09332426 40.12873773 583 24 0 1.00000000 1.00000000 1.00000000
H 5.47291781 36.47551421 40.88493705 584 24 0 1.00000000 1.00000000 1.00000000
H 4.60202366 36.98817409 39.48684399 585 24 0 1.00000000 1.00000000 1.00000000
H 6.88000285 36.99012599 38.65410201 586 24 0 1.00000000 1.00000000 1.00000000
H 6.18465281 35.43856947 38.10605032 587 24 0 1.00000000 1.00000000 1.00000000
H 7.27998864 34.69868346 40.56145475 588 24 0 1.00000000 1.00000000 1.00000000
H 8.10799074 36.20668127 40.36602966 589 24 0 1.00000000 1.00000000 1.00000000
H 8.41104510 34.84308775 39.31477861 590 24 0 1.00000000 1.00000000 1.00000000
C -0.93077223 19.53649727 10.29527717 591 25 0 0.56500000 0.56500000 0.56500000
C 0.39299316 19.56289844 11.03184071 592 25 0 0.56500000 0.56500000 0.56500000
C 1.48581699 18.99359420 10.13131840 593 25 0 0.56500000 0.56500000 0.56500000
C 2.94021226 19.30866388 10.47213775 594 25 0 0.56500000 0.56500000 0.56500000
C 3.39814463 18.72778070 11.85601887 595 25 0 0.56500000 0.56500000 0.56500000
C 4.91667289 18.93272804 11.92534844 596 25 0 0.56500000 0.56500000 0.56500000
C 5.49765967 18.45921207 13.24062046 597 25 0 0.56500000 0.56500000 0.56500000
H -1.72197290 19.76828181 11.00077502 598 25 0 1.00000000 1.00000000 1.00000000
H -1.13711357 18.53778739 9.87638058 599 25 0 1.00000000 1.00000000 1.00000000
H -1.06187673 20.23873832 9.51174158 600 25 0 1.00000000 1.00000000 1.00000000
H 0.40743870 18.92682053 11.92908313 601 25 0 1.00000000 1.00000000 1.00000000
H 0.70668549 20.61744216 11.31473856 602 25 0 1.00000000 1.00000000 1.00000000
H 1.28109408 19.24397560 9.03393387 603 25 0 1.00000000 1.00000000 1.00000000
H 1.19063668 17.91959844 10.12388531 604 25 0 1.00000000 1.00000000 1.00000000
H 3.00422969 20.37373468 10.46506850 605 25 0 1.00000000 1.00000000 1.00000000
H 3.64746097 18.99353759 9.66853984 606 25 0 1.00000000 1.00000000 1.00000000
H 3.09288672 17.66656249 12.05988854 607 25 0 1.00000000 1.00000000 1.00000000
H 2.84169443 19.36280314 12.57797141 608 25 0 1.00000000 1.00000000 1.00000000
H 5.22235308 19.93015399 11.76813006 609 25 0 1.00000000 1.00000000 1.00000000
H 5.37627603 18.37939873 11.11410641 610 25 0 1.00000000 1.00000000 1.00000000
H 5.55648544 17.30354520 13.27191806 611 25 0 1.00000000 1.00000000 1.00000000
H 4.77201367 18.83100660 14.06383370 612 25 0 1.00000000 1.00000000 1.00000000
H 6.50379220 18.84470177 13.33881572 613 25 0 1.00000000 1.00000000 1.00000000
C 32.71973785 31.08947036 38.74877242 614 26 0 0.56500000 0.56500000 0.56500000
C 34.18478204 30.73194631 38.80901105 615 26 0 0.56500000 0.56500000 0.56500000
C 34.92159474 31.53239337 37.72851482 616 26 0 0.56500000 0.56500000 0.56500000
C 36.40122799 31.21965610 37.62980303 617 26 0 0.56500000 0.56500000 0.56500000
C 37.10814870 32.01269493 36.55713923 618 26 0 0.56500000 0.56500000 0.56500000
C 38.65358937 31.88977394 36.68296612 619 26 0 0.56500000 0.56500000 0.56500000
C 39.28317359 32.45729976 35.44627253 620 26 0 0.56500000 0.56500000 0.56500000
H 32.18912227 30.59682998 39.61510599 621 26 0 1.00000000 1.00000000 1.00000000
H 32.24608207 30.79911707 37.81313513 622 26 0 1.00000000 1.00000000 1.00000000
H 32.51674154 32.12751027 38.87674214 623 26 0 1.00000000 1.00000000 1.00000000
H 34.32677518 29.68567477 38.57829934 624 26 0 1.00000000 1.00000000 1.00000000
H 34.60089754 31.04929522 39.76248930 625 26 0 1.00000000 1.00000000 1.00000000
H 34.85509993 32.58825332 37.90398649 626 26 0 1.00000000 1.00000000 1.00000000
H 34.41070348 31.37213359 36.68902631 627 26 0 1.00000000 1.00000000 1.00000000
H 36.64045139 30.18503318 37.54369659 628 26 0 1.00000000 1.00000000 1.00000000
H 36.72368682 31.51597203 38.61885320 629 26 0 1.00000000 1.00000000 1.00000000
H 36.73152156 33.05318517 36.56790316 630 26 0 1.00000000 1.00000000 1.00000000
H 36.81534358 31.65684948 35.50382149 631 26 0 1.00000000 1.00000000 1.00000000
H 38.95157780 30.83225631 36.83832885 632 26 0 1.00000000 1.00000000 1.00000000
H 38.94577794 32.38673612 37.61781992 633 26 0 1.00000000 1.00000000 1.00000000
H 40.43171706 32.39104323 35.44134811 634 26 0 1.00000000 1.00000000 1.00000000
H 39.14025588 33.55101821 35.38628411 635 26 0 1.00000000 1.00000000 1.00000000
H 38.84811934 32.10652301 34.50371291 636 26 0 1.00000000 1.00000000 1.00000000
C 8.92835974 39.62823103 -4.86716920 637 27 0 0.56500000 0.56500000 0.56500000
C 8.32854484 40.99334632 -4.79155010 638 27 0 0.56500000 0.56500000 0.56500000
C 8.76774094 41.72002972 -3.47960944 639 27 0 0.56500000 0.56500000 0.56500000
C 8.40272878 41.07064997 -2.21170026 640 27 0 0.56500000 0.56500000 0.56500000
C 8.46371292 42.00084072 -0.98749408 641 27 0 0.56500000 0.56500000 0.56500000
C 8.13904273 41.30286332 0.40313939 642 27 0 0.56500000 0.56500000 0.56500000
C 7.71608722 42.18894261 1.51925165 643 27 0 0.56500000 0.56500000 0.56500000
H 10.02073048 39.57801571 -4.83297141 644 27 0 1.00000000 1.00000000 1.00000000
H 8.60208962 39.07187393 -5.72346725 645 27 0 1.00000000 1.00000000 1.00000000
H 8.58281205 39.08762528 -3.97345142 646 27 0 1.00000000 1.00000000 1.00000000
H 7.23566860 40.94932119 -4.88490180 647 27 0 1.00000000 1.00000000 1.00000000
H 8.74338382 41.61160310 -5.59469396 648 27 0 1.00000000 1.00000000 1.00000000
H 8.17407357 42.62280201 -3.48382763 649 27 0 1.00000000 1.00000000 1.00000000
H 9.80516355 41.97305196 -3.61313829 650 27 0 1.00000000 1.00000000 1.00000000
H 8.99846074 40.16539384 -1.98404558 651 27 0 1.00000000 1.00000000 1.00000000
H 7.38071247 40.73364609 -2.33078283 652 27 0 1.00000000 1.00000000 1.00000000
H 7.78295513 42.88596262 -1.11062239 653 27 0 1.00000000 1.00000000 1.00000000
H 9.47726769 42.40760387 -0.82173833 654 27 0 1.00000000 1.00000000 1.00000000
H 8.99962459 40.62843594 0.65435033 655 27 0 1.00000000 1.00000000 1.00000000
H 7.36624846 40.55585093 0.21952361 656 27 0 1.00000000 1.00000000 1.00000000
H 6.85565716 42.73726358 1.17535054 657 27 0 1.00000000 1.00000000 1.00000000
H 8.46238148 42.90657751 1.83846583 658 27 0 1.00000000 1.00000000 1.00000000
H 7.52029348 41.53544496 2.37807834 659 27 0 1.00000000 1.00000000 1.00000000
C 28.03776723 43.10510668 -5.31828904 660 28 0 0.56500000 0.56500000 0.56500000
C 27.61790977 43.17243531 -6.82190253 661 28 0 0.56500000 0.56500000 0.56500000
C 26.56555774 44.30142947 -7.06860396 662 28 0 0.56500000 0.56500000 0.56500000
C 27.07749741 45.72910265 -6.83880850 663 28 0 0.56500000 0.56500000 0.56500000
C 26.15911796 46.86401835 -7.26680909 664 28 0 0.56500000 0.56500000 0.56500000
C 26.81348590 48.24075678 -7.04372929 665 28 0 0.56500000 0.56500000 0.56500000
C 25.82488069 49.40089827 -7.41637816 666 28 0 0.56500000 0.56500000 0.56500000
H 28.31721224 44.00304337 -4.86574592 667 28 0 1.00000000 1.00000000 1.00000000
H 28.82757960 42.35857467 -5.15404149 668 28 0 1.00000000 1.00000000 1.00000000
H 27.35168082 42.55806392 -4.63167222 669 28 0 1.00000000 1.00000000 1.00000000
H 27.24691349 42.21704266 -7.19599440 670 28 0 1.00000000 1.00000000 1.00000000
H 28.47190434 43.36197769 -7.52765700 671 28 0 1.00000000 1.00000000 1.00000000
H 25.69189157 44.01333890 -6.47238204 672 28 0 1.00000000 1.00000000 1.00000000
H 26.34518108 44.18797902 -8.12408310 673 28 0 1.00000000 1.00000000 1.00000000
H 28.10964666 45.66461939 -7.19156445 674 28 0 1.00000000 1.00000000 1.00000000
H 27.18102353 45.81863161 -5.77030873 675 28 0 1.00000000 1.00000000 1.00000000
H 25.18584478 46.82877534 -6.78084018 676 28 0 1.00000000 1.00000000 1.00000000
H 25.88903866 46.70645764 -8.33186227 677 28 0 1.00000000 1.00000000 1.00000000
H 27.78999744 48.43551125 -7.48872734 678 28 0 1.00000000 1.00000000 1.00000000
H 26.99617840 48.31211759 -5.99368271 679 28 0 1.00000000 1.00000000 1.00000000
H 26.44153079 50.32560867 -7.44403678 680 28 0 1.00000000 1.00000000 1.00000000
H 25.11537300 49.46329365 -6.63122754 681 28 0 1.00000000 1.00000000 1.00000000
H 25.41514824 49.29945599 -8.41881619 682 28 0 1.00000000 1.00000000 1.00000000
C 46.34932118 14.74238138 32.52147825 683 29 0 0.56500000 0.56500000 0.56500000
C 45.51161736 14.78167814 33.77927393 684 29 0 0.56500000 0.56500000 0.56500000
C 44.34948079 15.79271636 33.75809625 685 29 0 0.56500000 0.56500000 0.56500000
C 43.38297173 15.61859624 34.88321556 686 29 0 0.56500000 0.56500000 0.56500000
C 42.21884869 16.68318858 34.94499740 687 29 0 0.56500000 0.56500000 0.56500000
C 41.42635056 16.48830339 36.23594858 688 29 0 0.56500000 0.56500000 0.56500000
C 40.54866510 17.67617421 36.58618880 689 29 0 0.56500000 0.56500000 0.56500000
H 45.74084172 14.80147973 31.57896835 690 29 0 1.00000000 1.00000000 1.00000000
H 46.92887066 13.78697018 32.40588285 691 29 0 1.00000000 1.00000000 1.00000000
H 47.05976967 15.58908037 32.47223668 692 29 0 1.00000000 1.00000000 1.00000000
H 46.08236086 14.94778934 34.68282523 693 29 0 1.00000000 1.00000000 1.00000000
H 45.09285660 13.77548592 33.86762651 694 29 0 1.00000000 1.00000000 1.00000000
H 43.71701348 15.54198212 32.86814085 695 29 0 1.00000000 1.00000000 1.00000000
H 44.70856798 16.86413026 33.89271524 696 29 0 1.00000000 1.00000000 1.00000000
H 43.85658037 15.58801963 35.87681111 697 29 0 1.00000000 1.00000000 1.00000000
H 42.91614776 14.60277753 34.80534785 698 29 0 1.00000000 1.00000000 1.00000000
H 41.65831468 16.53766643 34.01484025 699 29 0 1.00000000 1.00000000 1.00000000
H 42.60552682 17.71835297 34.84075479 700 29 0 1.00000000 1.00000000 1.00000000
H 42.18387612 16.37487601 36.98050742 701 29 0 1.00000000 1.00000000 1.00000000
H 40.83133895 15.57730599 36.15271295 702 29 0 1.00000000 1.00000000 1.00000000
H 39.63814264 17.75966958 35.95170235 703 29 0 1.00000000 1.00000000 1.00000000
H 41.00061116 18.67989837 36.65687670 704 29 0 1.00000000 1.00000000 1.00000000
H 40.22463315 17.35801499 37.54876847 705 29 0 1.00000000 1.00000000 1.00000000
C 20.24578104 20.18799944 22.76379814 706 30 0 0.56500000 0.56500000 0.56500000
C 20.33895627 18.68672283 23.03896175 707 30 0 0.56500000 0.56500000 0.56500000
C 21.45376862 18.07288518 22.18200551 708 30 0 0.56500000 0.56500000 0.56500000
C 21.76765628 16.60173891 22.51936804 709 30 0 0.56500000 0.56500000 0.56500000
C 22.59642148 15.82698708 21.50795208 710 30 0 0.56500000 0.56500000 0.56500000
C 24.10363711 16.42311872 21.42817652 711 30 0 0.56500000 0.56500000 0.56500000
C 24.77146131 16.49724168 22.85511315 712 30 0 0.56500000 0.56500000 0.56500000
H 19.73303683 20.31595413 21.77674248 713 30 0 1.00000000 1.00000000 1.00000000
H 21.20460592 20.66615856 22.77444596 714 30 0 1.00000000 1.00000000 1.00000000
H 19.49935112 20.66910143 23.47990870 715 30 0 1.00000000 1.00000000 1.00000000
H 19.37228502 18.19277187 22.92333794 716 30 0 1.00000000 1.00000000 1.00000000
H 20.61858381 18.48292518 24.05817135 717 30 0 1.00000000 1.00000000 1.00000000
H 22.38254952 18.58672012 22.37190968 718 30 0 1.00000000 1.00000000 1.00000000
H 21.25289092 18.28127305 21.13554875 719 30 0 1.00000000 1.00000000 1.00000000
H 20.76572320 16.03433990 22.48050530 720 30 0 1.00000000 1.00000000 1.00000000
H 22.15084503 16.58354833 23.53645923 721 30 0 1.00000000 1.00000000 1.00000000
H 22.20239258 15.74085689 20.49425255 722 30 0 1.00000000 1.00000000 1.00000000
H 22.67494863 14.81412421 21.82787634 723 30 0 1.00000000 1.00000000 1.00000000
H 24.15358355 17.42664877 21.05129556 724 30 0 1.00000000 1.00000000 1.00000000
H 24.73751432 15.78986285 20.80967788 725 30 0 1.00000000 1.00000000 1.00000000
H 24.35292581 17.29306471 23.47301080 726 30 0 1.00000000 1.00000000 1.00000000
H 25.90205968 16.57342853 22.73871357 727 30 0 1.00000000 1.00000000 1.00000000
H 24.59501031 15.56003205 23.39853807 728 30 0 1.00000000 1.00000000 1.00000000
C 46.00674739 31.24579703 28.22487022 729 31 0 0.56500000 0.56500000 0.56500000
C 44.90726976 31.80373385 29.13229167 730 31 0 0.56500000 0.56500000 0.56500000
C 43.59974477 31.81060484 28.35697509 731 31 0 0.56500000 0.56500000 0.56500000
C 42.47507129 32.59843343 29.04799988 732 31 0 0.56500000 0.56500000 0.56500000
C 41.29401237 33.02097830 28.18269369 733 31 0 0.56500000 0.56500000 0.56500000
C 40.20696617 33.79993228 28.92098372 734 31 0 0.56500000 0.56500000 0.56500000
C 39.03098826 34.26228183 28.01330511 735 31 0 0.56500000 0.56500000 0.56500000
H 46.86851547 30.77279154 28.71110840 736 31 0 1.00000000 1.00000000 1.00000000
H 46.42088725 31.92354785 27.48400180 737 31 0 1.00000000 1.00000000 1.00000000
H 45.65610295 30.41371797 27.60529727 738 31 0 1.00000000 1.00000000 1.00000000
H 45.24070785 32.86129337 29.38548740 739 31 0 1.00000000 1.00000000 1.00000000
H 44.75307149 31.26564965 30.07601849 740 31 0 1.00000000 1.00000000 1.00000000
H 43.24684945 30.77344673 28.09180529 741 31 0 1.00000000 1.00000000 1.00000000
H 43.69058834 32.34250800 27.39712032 742 31 0 1.00000000 1.00000000 1.00000000
H 42.88862554 33.54260862 29.33110903 743 31 0 1.00000000 1.00000000 1.00000000
H 42.22122403 32.06221031 29.98341697 744 31 0 1.00000000 1.00000000 1.00000000
H 40.86698803 32.13972153 27.62289397 745 31 0 1.00000000 1.00000000 1.00000000
H 41.71366484 33.67066595 27.36937621 746 31 0 1.00000000 1.00000000 1.00000000
H 40.68551822 34.66027728 29.42551794 747 31 0 1.00000000 1.00000000 1.00000000
H 39.86024156 33.12452196 29.67793131 748 31 0 1.00000000 1.00000000 1.00000000
H 39.37654072 34.86052893 27.23921381 749 31 0 1.00000000 1.00000000 1.00000000
H 38.37983771 34.96221669 28.59327393 750 31 0 1.00000000 1.00000000 1.00000000
H 38.38198355 33.45077776 27.76094150 751 31 0 1.00000000 1.00000000 1.00000000
C -1.30430351 38.42869671 21.83882136 752 32 0 0.56500000 0.56500000 0.56500000
C -1.51012870 39.72114198 21.01946961 753 32 0 0.56500000 0.56500000 0.56500000
C -0.37251133 39.75230128 19.97338775 754 32 0 0.56500000 0.56500000 0.56500000
C 0.99601177 40.01152631 20.63541384 755 32 0 0.56500000 0.56500000 0.56500000
C 2.00247081 40.15293709 19.48592144 756 32 0 0.56500000 0.56500000 0.56500000
C 3.44957526 40.06811144 19.78577652 757 32 0 0.56500000 0.56500000 0.56500000
C 4.22618020 40.45743264 18.53992182 758 32 0 0.56500000 0.56500000 0.56500000
H -0.32773266 38.47516282 22.39138034 759 32 0 1.00000000 1.00000000 1.00000000
H -1.26581562 37.55606379 21.17031698 760 32 0 1.00000000 1.00000000 1.00000000
H -2.13774185 38.16653438 22.48483066 761 32 0 1.00000000 1.00000000 1.00000000
H -1.55105263 40.61620991 21.65465632 762 32 0 1.00000000 1.00000000 1.00000000
H -2.49850153 39.81748440 20.53262992 763 32 0 1.00000000 1.00000000 1.00000000
H -0.61004122 40.51782429 19.26821650 764 32 0 1.00000000 1.00000000 1.00000000
H -0.35915378 38.76309349 19.55457196 765 32 0 1.00000000 1.00000000 1.00000000
H 1.29576366 39.24196931 21.28500475 766 32 0 1.00000000 1.00000000 1.00000000
H 1.01521704 40.98870748 21.21862287 767 32 0 1.00000000 1.00000000 1.00000000
H 1.87935442 41.11971512 19.07699236 768 32 0 1.00000000 1.00000000 1.00000000
H 1.74660958 39.41574001 18.74784812 769 32 0 1.00000000 1.00000000 1.00000000
H 3.80746830 39.02818407 19.89692984 770 32 0 1.00000000 1.00000000 1.00000000
H 3.66881145 40.79689001 20.60484190 771 32 0 1.00000000 1.00000000 1.00000000
H 5.26859831 40.16841120 18.63587704 772 32 0 1.00000000 1.00000000 1.00000000
H 4.10461632 41.57234230 18.35014515 773 32 0 1.00000000 1.00000000 1.00000000
H 3.82116380 39.99381921 17.64904335 774 32 0 1.00000000 1.00000000 1.00000000
C 37.05128630 14.85485967 4.83772309 775 33 0 0.56500000 0.56500000 0.56500000
C 36.91144405 13.50021898 5.47222502 776 33 0 0.56500000 0.56500000 0.56500000
C 36.21837700 13.44601447 6.79593793 777 33 0 0.56500000 0.56500000 0.56500000
C 34.70952114 13.51646261 6.65856341 778 33 0 0.56500000 0.56500000 0.56500000
C 33.94338439 13.65021823 8.02526392 779 33 0 0.56500000 0.56500000 0.56500000
C 32.45846732 14.12217742 7.75554500 780 33 0 0.56500000 0.56500000 0.56500000
C 31.56596053 12.97651619 7.15836877 781 33 0 0.56500000 0.56500000 0.56500000
H 36.04227391 15.35746793 4.75671386 782 33 0 1.00000000 1.00000000 1.00000000
H 37.50857114 14.76167725 3.81753102 783 33 0 1.00000000 1.00000000 1.00000000
H 37.74420919 15.45529022 5.48876117 784 33 0 1.00000000 1.00000000 1.00000000
H 37.94063620 13.14156528 5.62612831 785 33 0 1.00000000 1.00000000 1.00000000
H 36.41621248 12.87353750 4.79812778 786 33 0 1.00000000 1.00000000 1.00000000
H 36.49922989 14.31413817 7.29690065 787 33 0 1.00000000 1.00000000 1.00000000
H 36.54225434 12.62926873 7.44442848 788 33 0 1.00000000 1.00000000 1.00000000
H 34.32374035 12.65427773 6.09306596 789 33 0 1.00000000 1.00000000 1.00000000
H 34.46604356 14.39789636 6.09434519 790 33 0 1.00000000 1.00000000 1.00000000
H 34.44899359 14.32034131 8.82304730 791 33 0 1.00000000 1.00000000 1.00000000
H 33.86248830 12.65926461 8.48015432 792 33 0 1.00000000 1.00000000 1.00000000
H 32.26306460 15.03004644 7.24295552 793 33 0 1.00000000 1.00000000 1.00000000
H 31.99882395 14.30883466 8.76347827 794 33 0 1.00000000 1.00000000 1.00000000
H 31.64769762 12.11075994 7.79069889 795 33 0 1.00000000 1.00000000 1.00000000
H 31.84701869 12.75395102 6.14328465 796 33 0 1.00000000 1.00000000 1.00000000
H 30.50371303 13.30261698 7.18011467 797 33 0 1.00000000 1.00000000 1.00000000
C 18.30872021 7.23410736 26.33736150 798 34 0 0.56500000 0.56500000 0.56500000
C 18.04678187 5.74961924 26.43624410 799 34 0 0.56500000 0.56500000 0.56500000
C 18.21915593 5.02999726 25.09511499 800 34 0 0.56500000 0.56500000 0.56500000
C 19.66339793 4.95898045 24.56434138 801 34 0 0.56500000 0.56500000 0.56500000
C 19.74270610 4.39042562 23.12490727 802 34 0 0.56500000 0.56500000 0.56500000
C 21.16382759 4.53611247 22.64296352 803 34 0 0.56500000 0.56500000 0.56500000
C 22.03042922 3.35483123 23.05521046 804 34 0 0.56500000 0.56500000 0.56500000
H 19.34833429 7.34776601 25.97975205 805 34 0 1.00000000 1.00000000 1.00000000
H 18.28983733 7.71717966 27.32136767 806 34 0 1.00000000 1.00000000 1.00000000
H 17.54559044 7.72980860 25.66002428 807 34 0 1.00000000 1.00000000 1.00000000
H 17.08178058 5.49750884 26.80561346 808 34 0 1.00000000 1.00000000 1.00000000
H 18.86234149 5.29820516 27.03473251 809 34 0 1.00000000 1.00000000 1.00000000
H 17.60805753 5.54044145 24.36553055 810 34 0 1.00000000 1.00000000 1.00000000
H 17.69433303 4.05882833 25.16687138 811 34 0 1.00000000 1.00000000 1.00000000
H 20.40419208 4.45654996 25.23232149 812 34 0 1.00000000 1.00000000 1.00000000
H 20.06095553 5.98609486 24.40971455 813 34 0 1.00000000 1.00000000 1.00000000
H 19.05064863 4.99612262 22.55289858 814 34 0 1.00000000 1.00000000 1.00000000
H 19.54430274 3.33413223 23.17543195 815 34 0 1.00000000 1.00000000 1.00000000
H 21.53541529 5.51299942 23.08344167 816 34 0 1.00000000 1.00000000 1.00000000
H 21.24519120 4.61304297 21.55030498 817 34 0 1.00000000 1.00000000 1.00000000
H 21.90941463 2.43738360 22.46152902 818 34 0 1.00000000 1.00000000 1.00000000
H 21.83605128 3.03760954 24.07620942 819 34 0 1.00000000 1.00000000 1.00000000
H 23.08000137 3.55236769 22.98687958 820 34 0 1.00000000 1.00000000 1.00000000
C 38.99948952 9.54354503 35.06712743 821 35 0 0.56500000 0.56500000 0.56500000
C 38.27895889 10.76588343 35.59169256 822 35 0 0.56500000 0.56500000 0.56500000
C 36.88029450 11.01350536 34.97549543 823 35 0 0.56500000 0.56500000 0.56500000
C 36.20643637 12.17421747 35.72543450 824 35 0 0.56500000 0.56500000 0.56500000
C 34.93248541 12.75097047 35.19006186 825 35 0 0.56500000 0.56500000 0.56500000
C 34.23756361 13.65488569 36.18508474 826 35 0 0.56500000 0.56500000 0.56500000
C 33.26436887 14.78592147 35.71606800 827 35 0 0.56500000 0.56500000 0.56500000
H 38.63729772 9.25767405 34.10416872 828 35 0 1.00000000 1.00000000 1.00000000
H 38.90612833 8.68375542 35.73047748 829 35 0 1.00000000 1.00000000 1.00000000
H 40.02916768 9.65657006 34.80367420 830 35 0 1.00000000 1.00000000 1.00000000
H 38.87973675 11.62838441 35.34917332 831 35 0 1.00000000 1.00000000 1.00000000
H 38.15089296 10.65426260 36.71205052 832 35 0 1.00000000 1.00000000 1.00000000
H 36.31875585 10.09486374 35.04555879 833 35 0 1.00000000 1.00000000 1.00000000
H 36.93197031 11.11149019 33.90246801 834 35 0 1.00000000 1.00000000 1.00000000
H 37.03807698 12.96997600 35.77205106 835 35 0 1.00000000 1.00000000 1.00000000
H 36.00532847 11.92236261 36.77991438 836 35 0 1.00000000 1.00000000 1.00000000
H 34.22720561 11.92883122 35.17033235 837 35 0 1.00000000 1.00000000 1.00000000
H 35.06861684 13.25395948 34.21540062 838 35 0 1.00000000 1.00000000 1.00000000
H 34.97076852 14.19166847 36.76360804 839 35 0 1.00000000 1.00000000 1.00000000
H 33.69088462 12.93427012 36.81996390 840 35 0 1.00000000 1.00000000 1.00000000
H 32.38207055 14.28630297 35.39090988 841 35 0 1.00000000 1.00000000 1.00000000
H 33.79472869 15.34273265 34.90201792 842 35 0 1.00000000 1.00000000 1.00000000
H 33.04456151 15.46238795 36.62445337 843 35 0 1.00000000 1.00000000 1.00000000
C 8.62638690 18.06591288 32.70938202 844 36 0 0.56500000 0.56500000 0.56500000
C 9.22371550 18.44531184 34.02467341 845 36 0 0.56500000 0.56500000 0.56500000
C 8.25518713 18.19838922 35.18362773 846 36 0 0.56500000 0.56500000 0.56500000
C 8.70784528 18.80449254 36.53388773 847 36 0 0.56500000 0.56500000 0.56500000
C 7.78478228 18.59795907 37.83729175 848 36 0 0.56500000 0.56500000 0.56500000
C 8.09706076 19.56936310 38.97226983 849 36 0 0.56500000 0.56500000 0.56500000
C 7.44830312 19.17503908 40.31694410 850 36 0 0.56500000 0.56500000 0.56500000
H 8.21720167 17.02632983 32.71392768 851 36 0 1.00000000 1.00000000 1.00000000
H 9.32447003 18.12776551 31.92046910 852 36 0 1.00000000 1.00000000 1.00000000
H 7.71244151 18.65607024 32.49519887 853 36 0 1.00000000 1.00000000 1.00000000
H 9.53327529 19.53060467 34.15305146 854 36 0 1.00000000 1.00000000 1.00000000
H 10.05539841 17.76559681 34.27486411 855 36 0 1.00000000 1.00000000 1.00000000
H 7.99122204 17.10696975 35.23813956 856 36 0 1.00000000 1.00000000 1.00000000
H 7.29018809 18.74982368 34.90918867 857 36 0 1.00000000 1.00000000 1.00000000
H 8.76075244 19.89320529 36.44780541 858 36 0 1.00000000 1.00000000 1.00000000
H 9.74577138 18.55107579 36.81217181 859 36 0 1.00000000 1.00000000 1.00000000
H 7.80137983 17.47641592 38.10052353 860 36 0 1.00000000 1.00000000 1.00000000
H 6.75166869 18.60009474 37.45130244 861 36 0 1.00000000 1.00000000 1.00000000
H 7.69820812 20.55884533 38.69903395 862 36 0 1.00000000 1.00000000 1.00000000
H 9.21966986 19.74458738 39.15341178 863 36 0 1.00000000 1.00000000 1.00000000
H 7.65112706 19.90190839 41.08119906 864 36 0 1.00000000 1.00000000 1.00000000
H 7.79741309 18.25729813 40.71819276 865 36 0 1.00000000 1.00000000 1.00000000
H 6.35970680 19.11238482 40.26010562 866 36 0 1.00000000 1.00000000 1.00000000
C 1.38130919 4.93854499 1.79883953 867 37 0 0.56500000 0.56500000 0.56500000
C 2.72984056 4.69184508 1.01102147 868 37 0 0.56500000 0.56500000 0.56500000
C 3.71099045 3.69025420 1.75091267 869 37 0 0.56500000 0.56500000 0.56500000
C 4.86403404 3.06015546 0.89059434 870 37 0 0.56500000 0.56500000 0.56500000
C 5.98700993 4.02577500 0.44312744 871 37 0 0.56500000 0.56500000 0.56500000
C 7.18376721 3.16444890 0.02870184 872 37 0 0.56500000 0.56500000 0.56500000
C 8.40330165 4.03274962 -0.40025913 873 37 0 0.56500000 0.56500000 0.56500000
H 1.59218004 5.19409235 2.81974251 874 37 0 1.00000000 1.00000000 1.00000000
H 0.72099435 4.00664053 1.94546142 875 37 0 1.00000000 1.00000000 1.00000000
H 0.77013112 5.63098766 1.33785805 876 37 0 1.00000000 1.00000000 1.00000000
H 3.25827525 5.65780109 0.95638744 877 37 0 1.00000000 1.00000000 1.00000000
H 2.57194588 4.30470994 -0.00790402 878 37 0 1.00000000 1.00000000 1.00000000
H 3.13782844 2.83257747 2.19005460 879 37 0 1.00000000 1.00000000 1.00000000
H 4.15194809 4.21622052 2.64896571 880 37 0 1.00000000 1.00000000 1.00000000
H 4.36820189 2.43869776 0.09243162 881 37 0 1.00000000 1.00000000 1.00000000
H 5.23929634 2.26889544 1.48486753 882 37 0 1.00000000 1.00000000 1.00000000
H 6.24204054 4.72550310 1.22394658 883 37 0 1.00000000 1.00000000 1.00000000
H 5.58073723 4.48162583 -0.47709738 884 37 0 1.00000000 1.00000000 1.00000000
H 6.95820642 2.43279247 -0.77994833 885 37 0 1.00000000 1.00000000 1.00000000
H 7.42457282 2.60926580 0.93752783 886 37 0 1.00000000 1.00000000 1.00000000
H 8.29387062 4.28438552 -1.49728953 887 37 0 1.00000000 1.00000000 1.00000000
H 9.36406810 3.44448993 -0.24330530 888 37 0 1.00000000 1.00000000 1.00000000
H 8.53535109 4.95727147 0.16507474 889 37 0 1.00000000 1.00000000 1.00000000
C 23.43496565 16.43319377 16.19800928 890 38 0 0.56500000 0.56500000 0.56500000
C 22.13817001 17.02950209 16.79351687 891 38 0 0.56500000 0.56500000 0.56500000
C 21.59692357 18.17822501 15.96618543 892 38 0 0.56500000 0.56500000 0.56500000
C 20.32765495 18.78053713 16.51673725 893 38 0 0.56500000 0.56500000 0.56500000
C 19.73807998 19.96278252 15.72384601 894 38 0 0.56500000 0.56500000 0.56500000
C 19.31305522 19.64243131 14.32040621 895 38 0 0.56500000 0.56500000 0.56500000
C 18.70166499 20.91575252 13.62754324 896 38 0 0.56500000 0.56500000 0.56500000
H 24.04197367 17.33077787 16.00107819 897 38 0 1.00000000 1.00000000 1.00000000
H 23.16672810 15.89172317 15.33888768 898 38 0 1.00000000 1.00000000 1.00000000
H 24.03169741 15.90805058 16.99022181 899 38 0 1.00000000 1.00000000 1.00000000
H 22.35559066 17.41200470 17.81911983 900 38 0 1.00000000 1.00000000 1.00000000
H 21.28104218 16.30215815 16.90506559 901 38 0 1.00000000 1.00000000 1.00000000
H 21.54186309 17.79829631 14.97440503 902 38 0 1.00000000 1.00000000 1.00000000
H 22.45115003 18.88092799 15.95326932 903 38 0 1.00000000 1.00000000 1.00000000
H 20.52011786 18.98697209 17.60065820 904 38 0 1.00000000 1.00000000 1.00000000
H 19.52159014 17.99366461 16.61814597 905 38 0 1.00000000 1.00000000 1.00000000
H 20.49391331 20.82312975 15.75223645 906 38 0 1.00000000 1.00000000 1.00000000
H 18.87459506 20.42400379 16.28570384 907 38 0 1.00000000 1.00000000 1.00000000
H 18.59123849 18.85755386 14.40928891 908 38 0 1.00000000 1.00000000 1.00000000
H 20.22259941 19.37066121 13.73275267 909 38 0 1.00000000 1.00000000 1.00000000
H 19.32178162 21.79818474 13.73741026 910 38 0 1.00000000 1.00000000 1.00000000
H 17.80216168 21.20152350 14.06419697 911 38 0 1.00000000 1.00000000 1.00000000
H 18.43817656 20.77317246 12.57765095 912 38 0 1.00000000 1.00000000 1.00000000
C 25.01616046 20.36902822 19.28876876 913 39 0 0.56500000 0.56500000 0.56500000
C 23.48406408 20.17785293 19.28172044 914 39 0 0.56500000 0.56500000 0.56500000
C 22.87830844 21.29824418 20.16268666 915 39 0 0.56500000 0.56500000 0.56500000
C 21.40848403 21.85679645 19.80597401 916 39 0 0.56500000 0.56500000 0.56500000
C 20.89937807 22.92970489 20.80349528 917 39 0 0.56500000 0.56500000 0.56500000
C 19.39711860 23.27619308 20.55778850 918 39 0 0.56500000 0.56500000 0.56500000
C 19.25406862 24.17883428 19.26562889 919 39 0 0.56500000 0.56500000 0.56500000
H 25.29528822 21.38108785 18.89710570 920 39 0 1.00000000 1.00000000 1.00000000
H 25.50011893 19.55888658 18.80434892 921 39 0 1.00000000 1.00000000 1.00000000
H 25.43210290 20.50976440 20.35009006 922 39 0 1.00000000 1.00000000 1.00000000
H 23.25333490 19.25601186 19.72474243 923 39 0 1.00000000 1.00000000 1.00000000
H 23.09039607 20.20478869 18.27241490 924 39 0 1.00000000 1.00000000 1.00000000
H 23.49876364 22.11370511 20.10952854 925 39 0 1.00000000 1.00000000 1.00000000
H 22.92713845 21.02932931 21.15900139 926 39 0 1.00000000 1.00000000 1.00000000
H 20.66834678 20.99385476 19.61101484 927 39 0 1.00000000 1.00000000 1.00000000
H 21.44674877 22.31800294 18.80483310 928 39 0 1.00000000 1.00000000 1.00000000
H 21.42300515 23.87591476 20.70537910 929 39 0 1.00000000 1.00000000 1.00000000
H 21.00486349 22.54320916 21.79881610 930 39 0 1.00000000 1.00000000 1.00000000
H 19.06201214 23.79570573 21.43707849 931 39 0 1.00000000 1.00000000 1.00000000
H 18.78003016 22.31322232 20.50298097 932 39 0 1.00000000 1.00000000 1.00000000
H 18.17399496 24.28236081 19.00598107 933 39 0 1.00000000 1.00000000 1.00000000
H 19.77056283 23.65026818 18.45834186 934 39 0 1.00000000 1.00000000 1.00000000
H 19.71822302 25.17315702 19.45698149 935 39 0 1.00000000 1.00000000 1.00000000
C 32.62042532 38.58514354 16.57218910 936 40 0 0.56500000 0.56500000 0.56500000
C 33.24257627 37.49523056 15.67584863 937 40 0 0.56500000 0.56500000 0.56500000
C 34.43054324 37.99608933 14.86630514 938 40 0 0.56500000 0.56500000 0.56500000
C 34.96580102 36.95995215 13.91728971 939 40 0 0.56500000 0.56500000 0.56500000
C 36.22617282 36.25549652 14.49491140 940 40 0 0.56500000 0.56500000 0.56500000
C 36.87230130 35.13067076 13.71840419 941 40 0 0.56500000 0.56500000 0.56500000
C 37.49528872 35.39584146 12.32999118 942 40 0 0.56500000 0.56500000 0.56500000
H 32.07220402 38.18803069 17.44528648 943 40 0 1.00000000 1.00000000 1.00000000
H 31.95911085 39.35818254 16.13952928 944 40 0 1.00000000 1.00000000 1.00000000
H 33.49739312 39.11790534 17.00049224 945 40 0 1.00000000 1.00000000 1.00000000
H 32.47196126 37.05420272 14.95067898 946 40 0 1.00000000 1.00000000 1.00000000
H 33.62728215 36.62319300 16.29295373 947 40 0 1.00000000 1.00000000 1.00000000
H 35.21117093 38.28621357 15.64711296 948 40 0 1.00000000 1.00000000 1.00000000
H 34.09049646 38.89709640 14.39595317 949 40 0 1.00000000 1.00000000 1.00000000
H 35.19278108 37.48519872 13.04077649 950 40 0 1.00000000 1.00000000 1.00000000
H 34.20112651 36.17135783 13.78084967 951 40 0 1.00000000 1.00000000 1.00000000
H 35.92656425 35.84774419 15.43425142 952 40 0 1.00000000 1.00000000 1.00000000
H 36.93418942 37.00233176 14.72070099 953 40 0 1.00000000 1.00000000 1.00000000
H 36.09111075 34.29167100 13.58786873 954 40 0 1.00000000 1.00000000 1.00000000
H 37.58588478 34.58326329 14.35492362 955 40 0 1.00000000 1.00000000 1.00000000
H 36.80255565 35.86526720 11.67144291 956 40 0 1.00000000 1.00000000 1.00000000
H 37.75638821 34.45920708 11.78791215 957 40 0 1.00000000 1.00000000 1.00000000
H 38.32578976 36.09464495 12.28729364 958 40 0 1.00000000 1.00000000 1.00000000
C 31.57614665 28.43450730 21.74341886 959 41 0 0.56500000 0.56500000 0.56500000
C 30.27898837 29.21180087 21.83530307 960 41 0 0.56500000 0.56500000 0.56500000
C 29.65845856 29.46405176 23.22742737 961 41 0 0.56500000 0.56500000 0.56500000
C 28.19392301 29.94055231 23.26319980 962 41 0 0.56500000 0.56500000 0.56500000
C 27.92540001 31.32462122 22.83901271 963 41 0 0.56500000 0.56500000 0.56500000
C 26.58403607 31.94396870 23.28599968 964 41 0 0.56500000 0.56500000 0.56500000
C 26.46852616 33.44095362 22.92011529 965 41 0 0.56500000 0.56500000 0.56500000
H 31.74180224 27.98898653 20.78988690 966 41 0 1.00000000 1.00000000 1.00000000
H 31.45778726 27.52232626 22.42909505 967 41 0 1.00000000 1.00000000 1.00000000
H 32.48838301 28.91469594 22.03757823 968 41 0 1.00000000 1.00000000 1.00000000
H 29.49353144 28.60227513 21.30629514 969 41 0 1.00000000 1.00000000 1.00000000
H 30.43728444 30.11048491 21.19663841 970 41 0 1.00000000 1.00000000 1.00000000
H 30.18243376 30.18070845 23.92866543 971 41 0 1.00000000 1.00000000 1.00000000
H 29.71935597 28.56789816 23.81703466 972 41 0 1.00000000 1.00000000 1.00000000
H 27.97485007 29.84056805 24.29617548 973 41 0 1.00000000 1.00000000 1.00000000
H 27.59352255 29.25827268 22.63567578 974 41 0 1.00000000 1.00000000 1.00000000
H 27.98826913 31.43443650 21.72146383 975 41 0 1.00000000 1.00000000 1.00000000
H 28.80815957 31.97564338 23.17190211 976 41 0 1.00000000 1.00000000 1.00000000
H 26.61475393 31.97052222 24.41645176 977 41 0 1.00000000 1.00000000 1.00000000
H 25.70928702 31.32847416 22.90165086 978 41 0 1.00000000 1.00000000 1.00000000
H 25.80533985 33.84705936 23.68977987 979 41 0 1.00000000 1.00000000 1.00000000
H 26.05958225 33.49109549 21.92641044 980 41 0 1.00000000 1.00000000 1.00000000
H 27.50104821 33.83974572 22.94336258 981 41 0 1.00000000 1.00000000 1.00000000
C 19.03887624 20.85016429 3.33047436 982 42 0 0.56500000 0.56500000 0.56500000
C 18.25794326 20.59013811 2.03890605 983 42 0 0.56500000 0.56500000 0.56500000
C 17.48851767 19.29733000 2.00006785 984 42 0 0.56500000 0.56500000 0.56500000
C 16.04477558 19.41396335 2.21119577 985 42 0 0.56500000 0.56500000 0.56500000
C 15.57422405 19.68439433 3.59471517 986 42 0 0.56500000 0.56500000 0.56500000
C 14.10592750 20.09149303 3.52407324 987 42 0 0.56500000 0.56500000 0.56500000
C 13.24504105 19.69614797 4.66076082 988 42 0 0.56500000 0.56500000 0.56500000
H 19.64277979 21.79972900 3.24291172 989 42 0 1.00000000 1.00000000 1.00000000
H 19.94378159 20.15491325 3.39262125 990 42 0 1.00000000 1.00000000 1.00000000
H 18.33927428 20.70326529 4.15044374 991 42 0 1.00000000 1.00000000 1.00000000
H 18.86611280 20.68038050 1.13734747 992 42 0 1.00000000 1.00000000 1.00000000
H 17.54435995 21.38597142 1.84848499 993 42 0 1.00000000 1.00000000 1.00000000
H 17.88950498 18.61792078 2.75356136 994 42 0 1.00000000 1.00000000 1.00000000
H 17.73127497 18.82277342 1.02836120 995 42 0 1.00000000 1.00000000 1.00000000
H 15.47863368 18.44355119 1.87966948 996 42 0 1.00000000 1.00000000 1.00000000
H 15.62640323 20.13175014 1.55494974 997 42 0 1.00000000 1.00000000 1.00000000
H 16.25065005 20.40311867 4.08874019 998 42 0 1.00000000 1.00000000 1.00000000
H 15.64582410 18.77413323 4.23569324 999 42 0 1.00000000 1.00000000 1.00000000
H 13.69724380 19.51622632 2.75278832 1000 42 0 1.00000000 1.00000000 1.00000000
H 14.03434513 21.09847597 3.22754246 1001 42 0 1.00000000 1.00000000 1.00000000
H 12.17639140 20.01936663 4.54135643 1002 42 0 1.00000000 1.00000000 1.00000000
H 13.57449476 20.02550967 5.68098043 1003 42 0 1.00000000 1.00000000 1.00000000
H 13.15986300 18.62710035 4.76277960 1004 42 0 1.00000000 1.00000000 1.00000000
C 4.20457983 35.45601794 11.13391101 1005 43 0 0.56500000 0.56500000 0.56500000
C 4.73321845 34.19130588 10.39507498 1006 43 0 0.56500000 0.56500000 0.56500000
C 4.17577264 32.83706707 10.99094721 1007 43 0 0.56500000 0.56500000 0.56500000
C 4.55228823 31.61088923 10.15522995 1008 43 0 0.56500000 0.56500000 0.56500000
C 4.07569580 30.34538841 10.88595063 1009 43 0 0.56500000 0.56500000 0.56500000
C 4.68924327 30.04819405 12.25682384 1010 43 0 0.56500000 0.56500000 0.56500000
C 4.64683451 28.54343972 12.56235749 1011 43 0 0.56500000 0.56500000 0.56500000
H 3.17479199 35.58313010 10.97597828 1012 43 0 1.00000000 1.00000000 1.00000000
H 4.66391408 36.33954442 10.70604770 1013 43 0 1.00000000 1.00000000 1.00000000
H 4.45112499 35.48355242 12.20413523 1014 43 0 1.00000000 1.00000000 1.00000000
H 5.79931118 34.22980210 10.39704178 1015 43 0 1.00000000 1.00000000 1.00000000
H 4.44389625 34.25533213 9.33367046 1016 43 0 1.00000000 1.00000000 1.00000000
H 3.06941738 33.04743647 10.97980792 1017 43 0 1.00000000 1.00000000 1.00000000
H 4.57824694 32.63279305 12.02211954 1018 43 0 1.00000000 1.00000000 1.00000000
H 5.67617905 31.55994334 10.07926446 1019 43 0 1.00000000 1.00000000 1.00000000
H 4.13878070 31.65084059 9.15725764 1020 43 0 1.00000000 1.00000000 1.00000000
H 4.39216863 29.48527438 10.23166781 1021 43 0 1.00000000 1.00000000 1.00000000
H 2.94441283 30.44371164 10.86534949 1022 43 0 1.00000000 1.00000000 1.00000000
H 4.28183123 30.76681923 13.02116815 1023 43 0 1.00000000 1.00000000 1.00000000
H 5.75878370 30.28854745 12.18452215 1024 43 0 1.00000000 1.00000000 1.00000000
H 5.03426601 28.27588010 13.56793032 1025 43 0 1.00000000 1.00000000 1.00000000
H 5.39355840 28.08183652 11.95350347 1026 43 0 1.00000000 1.00000000 1.00000000
H 3.69340842 28.06534346 12.41671690 1027 43 0 1.00000000 1.00000000 1.00000000
C 10.69186081 45.96184156 7.29127375 1028 44 0 0.56500000 0.56500000 0.56500000
C 11.84377732 44.91429604 7.43002021 1029 44 0 0.56500000 0.56500000 0.56500000
C 12.49317737 44.73793459 8.78604439 1030 44 0 0.56500000 0.56500000 0.56500000
C 11.58688532 44.22517351 9.91290687 1031 44 0 0.56500000 0.56500000 0.56500000
C 12.27015760 44.01332708 11.26667195 1032 44 0 0.56500000 0.56500000 0.56500000
C 11.26504247 44.02378652 12.49444216 1033 44 0 0.56500000 0.56500000 0.56500000
C 11.16091222 45.39704859 13.15483320 1034 44 0 0.56500000 0.56500000 0.56500000
H 9.77092556 45.71466006 7.84379906 1035 44 0 1.00000000 1.00000000 1.00000000
H 10.46567049 46.07333177 6.23643438 1036 44 0 1.00000000 1.00000000 1.00000000
H 10.96542929 47.00765276 7.52636460 1037 44 0 1.00000000 1.00000000 1.00000000
H 12.59481101 45.22648160 6.65105145 1038 44 0 1.00000000 1.00000000 1.00000000
H 11.51244706 43.92558719 7.14315580 1039 44 0 1.00000000 1.00000000 1.00000000
H 12.95440712 45.72666686 9.12097533 1040 44 0 1.00000000 1.00000000 1.00000000
H 13.26863591 44.05361381 8.65574896 1041 44 0 1.00000000 1.00000000 1.00000000
H 11.08433521 43.34838614 9.53131265 1042 44 0 1.00000000 1.00000000 1.00000000
H 10.73339752 44.94005967 10.01409104 1043 44 0 1.00000000 1.00000000 1.00000000
H 12.95127204 44.85588901 11.37127644 1044 44 0 1.00000000 1.00000000 1.00000000
H 12.94230878 43.12507934 11.12826913 1045 44 0 1.00000000 1.00000000 1.00000000
H 11.49839011 43.35984245 13.32927067 1046 44 0 1.00000000 1.00000000 1.00000000
H 10.30783299 43.66265331 12.14967731 1047 44 0 1.00000000 1.00000000 1.00000000
H 10.41173364 45.43361807 13.93268659 1048 44 0 1.00000000 1.00000000 1.00000000
H 10.76821385 46.08721154 12.31068527 1049 44 0 1.00000000 1.00000000 1.00000000
H 12.08520415 45.83489648 13.49730820 1050 44 0 1.00000000 1.00000000 1.00000000
C 34.23927537 35.17990141 34.81638861 1051 45 0 0.56500000 0.56500000 0.56500000
C 33.30439002 34.53671358 35.92042905 1052 45 0 0.56500000 0.56500000 0.56500000
C 31.98342538 35.27121550 35.84538842 1053 45 0 0.56500000 0.56500000 0.56500000
C 30.85619349 34.70555969 36.74530298 1054 45 0 0.56500000 0.56500000 0.56500000
C 29.73252606 35.77312787 36.90579996 1055 45 0 0.56500000 0.56500000 0.56500000
C 28.59152917 35.51812399 37.93838159 1056 45 0 0.56500000 0.56500000 0.56500000
C 27.92000242 36.86300019 38.16294239 1057 45 0 0.56500000 0.56500000 0.56500000
H 33.83773390 35.24045450 33.82755930 1058 45 0 1.00000000 1.00000000 1.00000000
H 35.13881514 34.61974992 34.67118691 1059 45 0 1.00000000 1.00000000 1.00000000
H 34.57640044 36.18886573 35.06659669 1060 45 0 1.00000000 1.00000000 1.00000000
H 33.71901786 34.84395046 36.93724033 1061 45 0 1.00000000 1.00000000 1.00000000
H 33.29207304 33.45675137 35.92185944 1062 45 0 1.00000000 1.00000000 1.00000000
H 31.60610367 35.21755797 34.84158253 1063 45 0 1.00000000 1.00000000 1.00000000
H 32.20212210 36.35092605 35.98032063 1064 45 0 1.00000000 1.00000000 1.00000000
H 31.15338162 34.51705597 37.76556431 1065 45 0 1.00000000 1.00000000 1.00000000
H 30.61241167 33.71195776 36.29101434 1066 45 0 1.00000000 1.00000000 1.00000000
H 29.15141201 36.07122547 35.98158364 1067 45 0 1.00000000 1.00000000 1.00000000
H 30.32085039 36.71698065 37.21329902 1068 45 0 1.00000000 1.00000000 1.00000000
H 29.11924372 35.17254021 38.78467748 1069 45 0 1.00000000 1.00000000 1.00000000
H 27.84897229 34.82599391 37.60940862 1070 45 0 1.00000000 1.00000000 1.00000000
H 27.26183928 36.92638199 39.08276185 1071 45 0 1.00000000 1.00000000 1.00000000
H 27.46152212 37.22350729 37.27094813 1072 45 0 1.00000000 1.00000000 1.00000000
H 28.70571977 37.60442188 38.41836430 1073 45 0 1.00000000 1.00000000 1.00000000
C 21.16263104 37.44967574 18.55435923 1074 46 0 0.56500000 0.56500000 0.56500000
C 21.93116154 38.25173427 19.61070382 1075 46 0 0.56500000 0.56500000 0.56500000
C 22.10361995 37.36107731 20.84110612 1076 46 0 0.56500000 0.56500000 0.56500000
C 22.97901454 38.03294450 21.96083703 1077 46 0 0.56500000 0.56500000 0.56500000
C 23.13389789 37.15915914 23.23166111 1078 46 0 0.56500000 0.56500000 0.56500000
C 23.56699932 37.86970968 24.46906278 1079 46 0 0.56500000 0.56500000 0.56500000
C 23.90997695 36.95926198 25.64750770 1080 46 0 0.56500000 0.56500000 0.56500000
H 20.16184289 37.79215045 18.34456412 1081 46 0 1.00000000 1.00000000 1.00000000
H 21.13857809 36.44163511 18.96874199 1082 46 0 1.00000000 1.00000000 1.00000000
H 21.65340757 37.40799362 17.61676101 1083 46 0 1.00000000 1.00000000 1.00000000
H 21.43895258 39.22775001 19.78198321 1084 46 0 1.00000000 1.00000000 1.00000000
H 22.94795353 38.57205997 19.33297525 1085 46 0 1.00000000 1.00000000 1.00000000
H 22.73569386 36.52407203 20.51489287 1086 46 0 1.00000000 1.00000000 1.00000000
H 21.17500335 36.97864827 21.21207197 1087 46 0 1.00000000 1.00000000 1.00000000
H 22.53371151 39.00891215 22.31496470 1088 46 0 1.00000000 1.00000000 1.00000000
H 24.00593971 38.26814704 21.57106278 1089 46 0 1.00000000 1.00000000 1.00000000
H 23.74752469 36.23673972 22.92621538 1090 46 0 1.00000000 1.00000000 1.00000000
H 22.12366105 36.72052606 23.42440339 1091 46 0 1.00000000 1.00000000 1.00000000
H 22.78389007 38.50891273 24.80889224 1092 46 0 1.00000000 1.00000000 1.00000000
H 24.38808729 38.62930554 24.23549530 1093 46 0 1.00000000 1.00000000 1.00000000
H 24.68265520 36.13326182 25.34462235 1094 46 0 1.00000000 1.00000000 1.00000000
H 23.05879454 36.33787491 26.02886796 1095 46 0 1.00000000 1.00000000 1.00000000
H 24.40081210 37.42488195 26.48728900 1096 46 0 1.00000000 1.00000000 1.00000000
C 33.27914305 27.52960773 13.25170351 1097 47 0 0.56500000 0.56500000 0.56500000
C 33.21922546 28.21758322 11.90407049 1098 47 0 0.56500000 0.56500000 0.56500000
C 34.48189599 29.03558722 11.48961539 1099 47 0 0.56500000 0.56500000 0.56500000
C 34.67020191 30.37917259 12.22485542 1100 47 0 0.56500000 0.56500000 0.56500000
C 35.84339691 31.23588158 11.73241227 1101 47 0 0.56500000 0.56500000 0.56500000
C 37.23496827 30.61003511 11.97027351 1102 47 0 0.56500000 0.56500000 0.56500000
C 38.37151992 31.53972684 11.51775000 1103 47 0 0.56500000 0.56500000 0.56500000
H 32.95332190 28.15639984 14.10876652 1104 47 0 1.00000000 1.00000000 1.00000000
H 34.24615793 27.13389806 13.50346986 1105 47 0 1.00000000 1.00000000 1.00000000
H 32.68575774 26.61600162 13.23889193 1106 47 0 1.00000000 1.00000000 1.00000000
H 32.34012263 28.91842175 11.91496991 1107 47 0 1.00000000 1.00000000 1.00000000
H 32.97352408 27.48583530 11.10273631 1108 47 0 1.00000000 1.00000000 1.00000000
H 34.34657955 29.35755078 10.43160238 1109 47 0 1.00000000 1.00000000 1.00000000
H 35.38885140 28.35776089 11.47267923 1110 47 0 1.00000000 1.00000000 1.00000000
H 34.77833849 30.15760734 13.26967671 1111 47 0 1.00000000 1.00000000 1.00000000
H 33.74182073 31.02076951 12.06551868 1112 47 0 1.00000000 1.00000000 1.00000000
H 36.00033712 32.21027679 12.27967680 1113 47 0 1.00000000 1.00000000 1.00000000
H 35.80541450 31.48435388 10.68320840 1114 47 0 1.00000000 1.00000000 1.00000000
H 37.29880514 29.64885404 11.43501324 1115 47 0 1.00000000 1.00000000 1.00000000
H 37.35216498 30.53607847 12.98717417 1116 47 0 1.00000000 1.00000000 1.00000000
H 38.36298171 31.79603620 10.42899212 1117 47 0 1.00000000 1.00000000 1.00000000
H 39.33299362 31.12180929 11.78527175 1118 47 0 1.00000000 1.00000000 1.00000000
H 38.19430863 32.54089830 12.06381198 1119 47 0 1.00000000 1.00000000 1.00000000
C 17.35159883 24.07192074 33.64062956 1120 48 0 0.56500000 0.56500000 0.56500000
C 18.32275851 24.96317869 32.86572368 1121 48 0 0.56500000 0.56500000 0.56500000
C 18.35834557 24.51385614 31.36123409 1122 48 0 0.56500000 0.56500000 0.56500000
C 19.05053147 23.15307964 31.14890181 1123 48 0 0.56500000 0.56500000 0.56500000
C 19.47422998 22.96839795 29.73369805 1124 48 0 0.56500000 0.56500000 0.56500000
C 20.15008502 21.58618440 29.42498704 1125 48 0 0.56500000 0.56500000 0.56500000
C 21.61529616 21.34194300 29.82387284 1126 48 0 0.56500000 0.56500000 0.56500000
H 16.32802856 24.28339266 33.27283860 1127 48 0 1.00000000 1.00000000 1.00000000
H 17.37687670 24.22872514 34.70803672 1128 48 0 1.00000000 1.00000000 1.00000000
H 17.65320477 23.07427896 33.40000214 1129 48 0 1.00000000 1.00000000 1.00000000
H 19.32280509 25.06944027 33.32373915 1130 48 0 1.00000000 1.00000000 1.00000000
H 17.92525047 25.97097231 32.84481615 1131 48 0 1.00000000 1.00000000 1.00000000
H 18.92175665 25.27153216 30.76015547 1132 48 0 1.00000000 1.00000000 1.00000000
H 17.33607482 24.49578582 30.86921699 1133 48 0 1.00000000 1.00000000 1.00000000
H 18.25531864 22.41817039 31.49666594 1134 48 0 1.00000000 1.00000000 1.00000000
H 19.92394027 22.97079522 31.74837802 1135 48 0 1.00000000 1.00000000 1.00000000
H 20.20504449 23.72761187 29.54499325 1136 48 0 1.00000000 1.00000000 1.00000000
H 18.62717488 23.18233956 29.13652663 1137 48 0 1.00000000 1.00000000 1.00000000
H 20.06903513 21.44676989 28.34003240 1138 48 0 1.00000000 1.00000000 1.00000000
H 19.50422926 20.76976550 29.84182484 1139 48 0 1.00000000 1.00000000 1.00000000
H 21.95957020 20.36889831 29.59035389 1140 48 0 1.00000000 1.00000000 1.00000000
H 21.67256193 21.44119877 30.93382898 1141 48 0 1.00000000 1.00000000 1.00000000
H 22.32581584 22.02168533 29.38251966 1142 48 0 1.00000000 1.00000000 1.00000000
C 36.25715596 49.50388767 -9.83386538 1143 49 0 0.56500000 0.56500000 0.56500000
C 34.76160729 49.18977225 -9.49843477 1144 49 0 0.56500000 0.56500000 0.56500000
C 34.41058491 49.53252130 -8.07441867 1145 49 0 0.56500000 0.56500000 0.56500000
C 35.10347964 48.95019383 -6.81607623 1146 49 0 0.56500000 0.56500000 0.56500000
C 34.53895923 49.44691937 -5.54635839 1147 49 0 0.56500000 0.56500000 0.56500000
C 35.31772520 49.08456264 -4.22978523 1148 49 0 0.56500000 0.56500000 0.56500000
C 35.54802716 47.62703286 -3.93017504 1149 49 0 0.56500000 0.56500000 0.56500000
H 36.60090112 49.06433969 -10.80202868 1150 49 0 1.00000000 1.00000000 1.00000000
H 36.81025385 48.93234005 -9.01362242 1151 49 0 1.00000000 1.00000000 1.00000000
H 36.46180787 50.55916806 -9.86645004 1152 49 0 1.00000000 1.00000000 1.00000000
H 34.49499298 48.13740223 -9.61370063 1153 49 0 1.00000000 1.00000000 1.00000000
H 34.02920169 49.73362756 -10.08459351 1154 49 0 1.00000000 1.00000000 1.00000000
H 33.42678751 49.10962934 -7.83184836 1155 49 0 1.00000000 1.00000000 1.00000000
H 34.46803949 50.61840916 -7.98435213 1156 49 0 1.00000000 1.00000000 1.00000000
H 36.11795151 49.24395944 -6.89386913 1157 49 0 1.00000000 1.00000000 1.00000000
H 35.15710854 47.79287616 -6.81013579 1158 49 0 1.00000000 1.00000000 1.00000000
H 33.48569275 49.07290554 -5.43778333 1159 49 0 1.00000000 1.00000000 1.00000000
H 34.52573079 50.58313228 -5.54228248 1160 49 0 1.00000000 1.00000000 1.00000000
H 34.94436183 49.70590431 -3.39418289 1161 49 0 1.00000000 1.00000000 1.00000000
H 36.30387425 49.48062604 -4.46279378 1162 49 0 1.00000000 1.00000000 1.00000000
H 35.77277009 47.43837192 -2.87445133 1163 49 0 1.00000000 1.00000000 1.00000000
H 36.36830834 47.21657333 -4.54502369 1164 49 0 1.00000000 1.00000000 1.00000000
H 34.69338569 46.97293365 -4.22759078 1165 49 0 1.00000000 1.00000000 1.00000000
C 17.55044222 41.14024288 27.84632075 1166 50 0 0.56500000 0.56500000 0.56500000
C 16.17711720 41.71556543 27.69369673 1167 50 0 0.56500000 0.56500000 0.56500000
C 15.60649702 42.32960582 28.97023233 1168 50 0 0.56500000 0.56500000 0.56500000
C 14.14844260 42.63112833 28.73455092 1169 50 0 0.56500000 0.56500000 0.56500000
C 13.63381785 43.50657831 27.55282948 1170 50 0 0.56500000 0.56500000 0.56500000
C 14.36253094 44.89191873 27.37835981 1171 50 0 0.56500000 0.56500000 0.56500000
C 14.03517761 45.63103047 26.11123802 1172 50 0 0.56500000 0.56500000 0.56500000
H 18.40996090 41.83426618 27.88099017 1173 50 0 1.00000000 1.00000000 1.00000000
H 17.70916988 40.42659998 27.02061420 1174 50 0 1.00000000 1.00000000 1.00000000
H 17.53938518 40.61925022 28.80145710 1175 50 0 1.00000000 1.00000000 1.00000000
H 15.42402279 40.93726297 27.40194121 1176 50 0 1.00000000 1.00000000 1.00000000
H 16.07384689 42.46964647 26.90588434 1177 50 0 1.00000000 1.00000000 1.00000000
H 16.05063045 43.26805164 29.34152663 1178 50 0 1.00000000 1.00000000 1.00000000
H 15.67575136 41.68728458 29.83899626 1179 50 0 1.00000000 1.00000000 1.00000000
H 13.62203886 42.97812138 29.68675660 1180 50 0 1.00000000 1.00000000 1.00000000
H 13.66414679 41.64995962 28.53450018 1181 50 0 1.00000000 1.00000000 1.00000000
H 12.50538561 43.67100758 27.66175336 1182 50 0 1.00000000 1.00000000 1.00000000
H 13.66211497 43.02706750 26.59220794 1183 50 0 1.00000000 1.00000000 1.00000000
H 15.49213034 44.62988113 27.49830508 1184 50 0 1.00000000 1.00000000 1.00000000
H 14.17026742 45.46059818 28.29629738 1185 50 0 1.00000000 1.00000000 1.00000000
H 12.92054979 45.73538481 26.00688447 1186 50 0 1.00000000 1.00000000 1.00000000
H 14.52886436 45.13294184 25.23714356 1187 50 0 1.00000000 1.00000000 1.00000000
H 14.50292386 46.59503130 26.22386927 1188 50 0 1.00000000 1.00000000 1.00000000
C 45.56445112 22.19243739 9.52737045 1189 51 0 0.56500000 0.56500000 0.56500000
C 45.38560333 23.49847359 10.23732310 1190 51 0 0.56500000 0.56500000 0.56500000
C 44.04477588 23.42381843 10.96438562 1191 51 0 0.56500000 0.56500000 0.56500000
C 43.98044661 22.60824680 12.29330280 1192 51 0 0.56500000 0.56500000 0.56500000
C 44.56409242 23.28576420 13.51033894 1193 51 0 0.56500000 0.56500000 0.56500000
C 43.89328982 22.77704194 14.84499840 1194 51 0 0.56500000 0.56500000 0.56500000
C 44.49627202 21.44436294 15.31942867 1195 51 0 0.56500000 0.56500000 0.56500000
H 44.76239422 21.92477144 8.82388607 1196 51 0 1.00000000 1.00000000 1.00000000
H 45.76140591 21.31756504 10.21685089 1197 51 0 1.00000000 1.00000000 1.00000000
H 46.49860567 22.16636342 8.95883048 1198 51 0 1.00000000 1.00000000 1.00000000
H 45.34978148 24.26982804 9.48566927 1199 51 0 1.00000000 1.00000000 1.00000000
H 46.22960135 23.68678817 10.91378466 1200 51 0 1.00000000 1.00000000 1.00000000
H 43.20972401 22.98361508 10.31276099 1201 51 0 1.00000000 1.00000000 1.00000000
H 43.68821955 24.41754124 11.17304730 1202 51 0 1.00000000 1.00000000 1.00000000
H 44.53616213 21.73446809 12.11371454 1203 51 0 1.00000000 1.00000000 1.00000000
H 42.95492004 22.37600670 12.38796482 1204 51 0 1.00000000 1.00000000 1.00000000
H 44.47078385 24.39951046 13.44833694 1205 51 0 1.00000000 1.00000000 1.00000000
H 45.63682839 23.21919473 13.59927115 1206 51 0 1.00000000 1.00000000 1.00000000
H 42.80827122 22.59299675 14.59771097 1207 51 0 1.00000000 1.00000000 1.00000000
H 43.87550016 23.65527095 15.52616210 1208 51 0 1.00000000 1.00000000 1.00000000
H 44.12779563 21.17269204 16.25169470 1209 51 0 1.00000000 1.00000000 1.00000000
H 45.53047696 21.42805018 15.45346921 1210 51 0 1.00000000 1.00000000 1.00000000
H 44.23812541 20.75118464 14.55552443 1211 51 0 1.00000000 1.00000000 1.00000000
C 5.28304773 5.12548995 42.41287434 1212 52 0 0.56500000 0.56500000 0.56500000
C 5.97855909 5.61270457 43.68666999 1213 52 0 0.56500000 0.56500000 0.56500000
C 7.31997874 6.36120303 43.41460830 1214 52 0 0.56500000 0.56500000 0.56500000
C 8.19321501 5.52213631 42.48778695 1215 52 0 0.56500000 0.56500000 0.56500000
C 9.60474108 6.04687345 42.22008690 1216 52 0 0.56500000 0.56500000 0.56500000
C 10.26967256 5.03001493 41.33870379 1217 52 0 0.56500000 0.56500000 0.56500000
C 11.68066213 5.43179625 40.99189470 1218 52 0 0.56500000 0.56500000 0.56500000
H 5.45649384 5.66352984 41.44218932 1219 52 0 1.00000000 1.00000000 1.00000000
H 4.19280145 5.09620026 42.60858849 1220 52 0 1.00000000 1.00000000 1.00000000
H 5.59962646 4.12356701 42.23985515 1221 52 0 1.00000000 1.00000000 1.00000000
H 6.13493229 4.83750445 44.48964897 1222 52 0 1.00000000 1.00000000 1.00000000
H 5.29356482 6.31750068 44.13988335 1223 52 0 1.00000000 1.00000000 1.00000000
H 7.86052226 6.48046495 44.38841429 1224 52 0 1.00000000 1.00000000 1.00000000
H 7.20704746 7.30755052 42.94328853 1225 52 0 1.00000000 1.00000000 1.00000000
H 7.67468589 5.30119511 41.50365519 1226 52 0 1.00000000 1.00000000 1.00000000
H 8.31474375 4.49389666 42.90499880 1227 52 0 1.00000000 1.00000000 1.00000000
H 10.19479238 6.19818383 43.10610547 1228 52 0 1.00000000 1.00000000 1.00000000
H 9.56597044 7.04246848 41.64571485 1229 52 0 1.00000000 1.00000000 1.00000000
H 9.79882170 4.66761846 40.38826871 1230 52 0 1.00000000 1.00000000 1.00000000
H 10.27508883 4.13282303 41.97532569 1231 52 0 1.00000000 1.00000000 1.00000000
H 12.24656534 5.90600016 41.83379674 1232 52 0 1.00000000 1.00000000 1.00000000
H 11.64668806 6.19575026 40.22905802 1233 52 0 1.00000000 1.00000000 1.00000000
H 12.15427152 4.50151633 40.68293412 1234 52 0 1.00000000 1.00000000 1.00000000
C 9.04466943 12.01150244 15.61851409 1235 53 0 0.56500000 0.56500000 0.56500000
C 7.67165919 12.38681937 16.06880990 1236 53 0 0.56500000 0.56500000 0.56500000
C 6.90349572 13.28702716 15.09332265 1237 53 0 0.56500000 0.56500000 0.56500000
C 5.50850025 13.65127313 15.54383040 1238 53 0 0.56500000 0.56500000 0.56500000
C 4.71232589 14.52554008 14.47539753 1239 53 0 0.56500000 0.56500000 0.56500000
C 3.15763091 14.70458995 14.80835102 1240 53 0 0.56500000 0.56500000 0.56500000
C 2.49474132 13.32471551 14.73750092 1241 53 0 0.56500000 0.56500000 0.56500000
H 9.54101821 11.29579161 16.22242641 1242 53 0 1.00000000 1.00000000 1.00000000
H 9.72762704 12.94562928 15.80043341 1243 53 0 1.00000000 1.00000000 1.00000000
H 9.22179361 11.84014474 14.56008197 1244 53 0 1.00000000 1.00000000 1.00000000
H 7.77210952 12.68954591 17.07478852 1245 53 0 1.00000000 1.00000000 1.00000000
H 7.01272616 11.47951142 16.22231939 1246 53 0 1.00000000 1.00000000 1.00000000
H 6.86799817 12.69797258 14.18891697 1247 53 0 1.00000000 1.00000000 1.00000000
H 7.59393678 14.17180368 14.86155109 1248 53 0 1.00000000 1.00000000 1.00000000
H 5.58250197 14.30978149 16.44131937 1249 53 0 1.00000000 1.00000000 1.00000000
H 4.86022091 12.80820852 15.80547096 1250 53 0 1.00000000 1.00000000 1.00000000
H 4.77656317 13.99335997 13.49977619 1251 53 0 1.00000000 1.00000000 1.00000000
H 5.12285995 15.50611189 14.37793918 1252 53 0 1.00000000 1.00000000 1.00000000
H 2.58972651 15.30289745 14.04594964 1253 53 0 1.00000000 1.00000000 1.00000000
H 2.87621309 15.20392003 15.72181057 1254 53 0 1.00000000 1.00000000 1.00000000
H 2.70113085 12.90044136 13.76533163 1255 53 0 1.00000000 1.00000000 1.00000000
H 1.42571315 13.48796260 14.84048587 1256 53 0 1.00000000 1.00000000 1.00000000
H 2.81948525 12.61981867 15.47737716 1257 53 0 1.00000000 1.00000000 1.00000000
C 23.06507512 9.56236834 24.39960557 1258 54 0 0.56500000 0.56500000 0.56500000
C 24.07764594 10.21036311 23.50216947 1259 54 0 0.56500000 0.56500000 0.56500000
C 24.36404147 11.63839908 23.94176935 1260 54 0 0.56500000 0.56500000 0.56500000
C 25.41036866 11.71872103 25.05378531 1261 54 0 0.56500000 0.56500000 0.56500000
C 25.74179561 13.14572774 25.50105820 1262 54 0 0.56500000 0.56500000 0.56500000
C 26.78074790 13.94046115 24.74433793 1263 54 0 0.56500000 0.56500000 0.56500000
C 28.21599425 13.32203318 24.77345457 1264 54 0 0.56500000 0.56500000 0.56500000
H 23.40641445 9.31274909 25.39717303 1265 54 0 1.00000000 1.00000000 1.00000000
H 22.71855025 8.52060539 24.09754016 1266 54 0 1.00000000 1.00000000 1.00000000
H 22.20163548 10.28339736 24.60934337 1267 54 0 1.00000000 1.00000000 1.00000000
H 23.67942711 10.25842235 22.47420058 1268 54 0 1.00000000 1.00000000 1.00000000
H 25.05731870 9.77362701 23.46934484 1269 54 0 1.00000000 1.00000000 1.00000000
H 23.42275508 12.06709580 24.36040940 1270 54 0 1.00000000 1.00000000 1.00000000
H 24.66230737 12.21628222 23.04213912 1271 54 0 1.00000000 1.00000000 1.00000000
H 26.36586538 11.16872899 24.81895869 1272 54 0 1.00000000 1.00000000 1.00000000
H 24.94638594 11.24148354 25.87158786 1273 54 0 1.00000000 1.00000000 1.00000000
H 26.11682641 13.07421443 26.50266227 1274 54 0 1.00000000 1.00000000 1.00000000
H 24.84360575 13.72622011 25.51099852 1275 54 0 1.00000000 1.00000000 1.00000000
H 26.95606613 14.82699977 25.20815551 1276 54 0 1.00000000 1.00000000 1.00000000
H 26.50727942 14.13864792 23.70821702 1277 54 0 1.00000000 1.00000000 1.00000000
H 28.38738735 13.15296536 25.82587805 1278 54 0 1.00000000 1.00000000 1.00000000
H 29.01351033 14.03662648 24.37741428 1279 54 0 1.00000000 1.00000000 1.00000000
H 28.35097819 12.34113865 24.34709506 1280 54 0 1.00000000 1.00000000 1.00000000
C 27.65189680 45.56383939 36.48090888 1281 55 0 0.56500000 0.56500000 0.56500000
C 27.68222426 44.08016919 36.00051980 1282 55 0 0.56500000 0.56500000 0.56500000
C 26.85457699 43.78059157 34.83273874 1283 55 0 0.56500000 0.56500000 0.56500000
C 26.55049030 42.28241416 34.71424013 1284 55 0 0.56500000 0.56500000 0.56500000
C 26.10074407 41.82185830 33.31594428 1285 55 0 0.56500000 0.56500000 0.56500000
C 25.86959174 40.37393968 33.34370179 1286 55 0 0.56500000 0.56500000 0.56500000
C 24.63485995 40.02705761 34.24153438 1287 55 0 0.56500000 0.56500000 0.56500000
H 27.99081085 45.68521283 37.51527776 1288 55 0 1.00000000 1.00000000 1.00000000
H 26.60927630 45.98589914 36.41054713 1289 55 0 1.00000000 1.00000000 1.00000000
H 28.18668934 46.27128854 35.82460943 1290 55 0 1.00000000 1.00000000 1.00000000
H 27.25546667 43.52210057 36.88728657 1291 55 0 1.00000000 1.00000000 1.00000000
H 28.70142545 43.74508848 35.82961952 1292 55 0 1.00000000 1.00000000 1.00000000
H 27.29353154 44.16620836 33.92059942 1293 55 0 1.00000000 1.00000000 1.00000000
H 25.83923088 44.23480879 34.80561357 1294 55 0 1.00000000 1.00000000 1.00000000
H 25.84499888 42.07647308 35.49197098 1295 55 0 1.00000000 1.00000000 1.00000000
H 27.37358652 41.67189273 35.10468882 1296 55 0 1.00000000 1.00000000 1.00000000
H 26.92768824 42.24909675 32.68160763 1297 55 0 1.00000000 1.00000000 1.00000000
H 25.25111781 42.36643678 33.03729996 1298 55 0 1.00000000 1.00000000 1.00000000
H 26.75697858 39.80214296 33.59755052 1299 55 0 1.00000000 1.00000000 1.00000000
H 25.54867492 39.99076042 32.33896074 1300 55 0 1.00000000 1.00000000 1.00000000
H 24.00187239 40.87048461 34.21291821 1301 55 0 1.00000000 1.00000000 1.00000000
H 24.92826995 39.86867562 35.27256995 1302 55 0 1.00000000 1.00000000 1.00000000
H 24.12184337 39.22283883 33.79210441 1303 55 0 1.00000000 1.00000000 1.00000000
C 41.82857690 22.61249371 -8.79239381 1304 56 0 0.56500000 0.56500000 0.56500000
C 40.82795916 21.51542798 -8.82228486 1305 56 0 0.56500000 0.56500000 0.56500000
C 40.91999577 20.50850431 -7.68902636 1306 56 0 0.56500000 0.56500000 0.56500000
C 39.93506716 19.31105598 -7.86085673 1307 56 0 0.56500000 0.56500000 0.56500000
C 40.17607858 18.25262058 -6.77886135 1308 56 0 0.56500000 0.56500000 0.56500000
C 39.14364331 17.15451880 -6.88199857 1309 56 0 0.56500000 0.56500000 0.56500000
C 39.37238921 16.22958926 -8.02128845 1310 56 0 0.56500000 0.56500000 0.56500000
H 42.80970602 22.24703218 -8.75194492 1311 56 0 1.00000000 1.00000000 1.00000000
H 41.83456091 23.23052791 -7.89876253 1312 56 0 1.00000000 1.00000000 1.00000000
H 41.84690373 23.33635687 -9.68338843 1313 56 0 1.00000000 1.00000000 1.00000000
H 41.11048783 21.02548851 -9.77153364 1314 56 0 1.00000000 1.00000000 1.00000000
H 39.79067562 21.86961335 -8.89661933 1315 56 0 1.00000000 1.00000000 1.00000000
H 40.66283485 20.89359045 -6.65643704 1316 56 0 1.00000000 1.00000000 1.00000000
H 41.99860375 20.14627342 -7.59266691 1317 56 0 1.00000000 1.00000000 1.00000000
H 40.12372600 18.94961439 -8.86975303 1318 56 0 1.00000000 1.00000000 1.00000000
H 38.85457644 19.68269110 -7.98387508 1319 56 0 1.00000000 1.00000000 1.00000000
H 40.30903099 18.82289624 -5.77912765 1320 56 0 1.00000000 1.00000000 1.00000000
H 41.10363191 17.72367432 -6.92703018 1321 56 0 1.00000000 1.00000000 1.00000000
H 38.10421959 17.54459690 -6.96912406 1322 56 0 1.00000000 1.00000000 1.00000000
H 39.16106925 16.57033443 -5.98702422 1323 56 0 1.00000000 1.00000000 1.00000000
H 40.41569209 15.89137672 -8.01650836 1324 56 0 1.00000000 1.00000000 1.00000000
H 39.20955328 16.79805694 -8.90357337 1325 56 0 1.00000000 1.00000000 1.00000000
H 38.69203365 15.33312594 -8.08573523 1326 56 0 1.00000000 1.00000000 1.00000000
C 12.51354748 38.53626129 37.10641764 1327 57 0 0.56500000 0.56500000 0.56500000
C 11.29944833 39.38127224 36.72255071 1328 57 0 0.56500000 0.56500000 0.56500000
C 10.16101460 38.64558629 36.18854172 1329 57 0 0.56500000 0.56500000 0.56500000
C 9.02876110 39.50991481 35.66154938 1330 57 0 0.56500000 0.56500000 0.56500000
C 7.83131607 38.68414714 35.23047582 1331 57 0 0.56500000 0.56500000 0.56500000
C 6.80163641 39.57716461 34.61116249 1332 57 0 0.56500000 0.56500000 0.56500000
C 5.49582209 38.76474971 34.29242374 1333 57 0 0.56500000 0.56500000 0.56500000
H 12.95401848 38.11738061 36.13582543 1334 57 0 1.00000000 1.00000000 1.00000000
H 12.19660988 37.67253686 37.71639005 1335 57 0 1.00000000 1.00000000 1.00000000
H 13.24165324 39.08229334 37.70105426 1336 57 0 1.00000000 1.00000000 1.00000000
H 11.56306360 40.15282178 35.95669824 1337 57 0 1.00000000 1.00000000 1.00000000
H 10.95861336 39.82365530 37.67947032 1338 57 0 1.00000000 1.00000000 1.00000000
H 9.69538920 37.97107967 36.91959429 1339 57 0 1.00000000 1.00000000 1.00000000
H 10.47095318 37.88292542 35.41665374 1340 57 0 1.00000000 1.00000000 1.00000000
H 9.37338062 40.14933820 34.83263922 1341 57 0 1.00000000 1.00000000 1.00000000
H 8.82771933 40.19025300 36.48643711 1342 57 0 1.00000000 1.00000000 1.00000000
H 7.39500681 38.19303866 36.12422263 1343 57 0 1.00000000 1.00000000 1.00000000
H 8.11728036 37.87437001 34.53448687 1344 57 0 1.00000000 1.00000000 1.00000000
H 7.15399165 40.19772117 33.76951750 1345 57 0 1.00000000 1.00000000 1.00000000
H 6.53914340 40.15972346 35.47779254 1346 57 0 1.00000000 1.00000000 1.00000000
H 5.31982718 38.11553311 35.13457885 1347 57 0 1.00000000 1.00000000 1.00000000
H 5.55827723 38.10550554 33.37291088 1348 57 0 1.00000000 1.00000000 1.00000000
H 4.59130160 39.36252847 34.14100513 1349 57 0 1.00000000 1.00000000 1.00000000
C 31.14365320 11.52744352 3.30665617 1350 58 0 0.56500000 0.56500000 0.56500000
C 32.17126255 10.50258684 3.72033561 1351 58 0 0.56500000 0.56500000 0.56500000
C 32.66083737 9.61802148 2.52961007 1352 58 0 0.56500000 0.56500000 0.56500000
C 33.82081169 8.73809003 2.98500667 1353 58 0 0.56500000 0.56500000 0.56500000
C 33.65961917 7.55890990 3.97880580 1354 58 0 0.56500000 0.56500000 0.56500000
C 34.95036858 6.84167389 4.21007549 1355 58 0 0.56500000 0.56500000 0.56500000
C 34.87037265 5.40545785 4.66567114 1356 58 0 0.56500000 0.56500000 0.56500000
H 31.58570690 12.06556486 2.52817887 1357 58 0 1.00000000 1.00000000 1.00000000
H 30.95036292 12.32123572 4.05170194 1358 58 0 1.00000000 1.00000000 1.00000000
H 30.13842563 11.09087399 2.96803711 1359 58 0 1.00000000 1.00000000 1.00000000
H 31.90970087 9.74828951 4.62624712 1360 58 0 1.00000000 1.00000000 1.00000000
H 33.07728854 11.00785872 3.91409735 1361 58 0 1.00000000 1.00000000 1.00000000
H 33.05593477 10.31185572 1.71633104 1362 58 0 1.00000000 1.00000000 1.00000000
H 31.80408945 9.01791708 2.06398517 1363 58 0 1.00000000 1.00000000 1.00000000
H 34.46874883 9.40916018 3.52430660 1364 58 0 1.00000000 1.00000000 1.00000000
H 34.38383234 8.41630511 2.08993049 1365 58 0 1.00000000 1.00000000 1.00000000
H 32.90819114 6.74999090 3.63294806 1366 58 0 1.00000000 1.00000000 1.00000000
H 33.16094977 7.83620670 4.96602603 1367 58 0 1.00000000 1.00000000 1.00000000
H 35.64749142 7.35723943 4.99722124 1368 58 0 1.00000000 1.00000000 1.00000000
H 35.65074910 6.96394939 3.32166095 1369 58 0 1.00000000 1.00000000 1.00000000
H 34.36317116 5.27482547 5.59126459 1370 58 0 1.00000000 1.00000000 1.00000000
H 35.88703583 5.06277233 4.91080647 1371 58 0 1.00000000 1.00000000 1.00000000
H 34.44332864 4.63309423 3.93214382 1372 58 0 1.00000000 1.00000000 1.00000000
C 9.37597172 21.19519682 20.97983900 1373 59 0 0.56500000 0.56500000 0.56500000
C 8.43072308 21.49716813 19.83152391 1374 59 0 0.56500000 0.56500000 0.56500000
C 7.04660721 21.98596650 20.36479375 1375 59 0 0.56500000 0.56500000 0.56500000
C 6.03375935 22.33626681 19.28524743 1376 59 0 0.56500000 0.56500000 0.56500000
C 4.71692234 23.00394802 19.82856737 1377 59 0 0.56500000 0.56500000 0.56500000
C 3.70248395 22.07174556 20.47399052 1378 59 0 0.56500000 0.56500000 0.56500000
C 2.96207572 21.06588500 19.68198306 1379 59 0 0.56500000 0.56500000 0.56500000
H 10.43067204 21.36882919 20.69869902 1380 59 0 1.00000000 1.00000000 1.00000000
H 9.21950393 20.10132918 21.28943006 1381 59 0 1.00000000 1.00000000 1.00000000
H 9.17757630 21.96651678 21.72999467 1382 59 0 1.00000000 1.00000000 1.00000000
H 8.28882422 20.71661389 19.11281618 1383 59 0 1.00000000 1.00000000 1.00000000
H 8.86241554 22.41498639 19.33628021 1384 59 0 1.00000000 1.00000000 1.00000000
H 7.17528620 22.92246125 20.96891075 1385 59 0 1.00000000 1.00000000 1.00000000
H 6.64079780 21.23098954 21.05521715 1386 59 0 1.00000000 1.00000000 1.00000000
H 5.73821932 21.40055420 18.75587981 1387 59 0 1.00000000 1.00000000 1.00000000
H 6.54695915 23.07886632 18.67898233 1388 59 0 1.00000000 1.00000000 1.00000000
H 4.29561801 23.59721780 19.05613630 1389 59 0 1.00000000 1.00000000 1.00000000
H 5.16107187 23.68023789 20.54135685 1390 59 0 1.00000000 1.00000000 1.00000000
H 3.00492322 22.69829262 20.99217211 1391 59 0 1.00000000 1.00000000 1.00000000
H 4.16403149 21.57105535 21.32057150 1392 59 0 1.00000000 1.00000000 1.00000000
H 3.70223509 20.34641724 19.25952967 1393 59 0 1.00000000 1.00000000 1.00000000
H 2.34871218 21.39987503 18.78868575 1394 59 0 1.00000000 1.00000000 1.00000000
H 2.20715296 20.44958281 20.22848885 1395 59 0 1.00000000 1.00000000 1.00000000
C 34.63271940 32.77819159 -1.63016575 1396 60 0 0.56500000 0.56500000 0.56500000
C 36.18872392 33.00854914 -1.73653848 1397 60 0 0.56500000 0.56500000 0.56500000
C 36.68808971 34.24547472 -1.03708900 1398 60 0 0.56500000 0.56500000 0.56500000
C 38.15554598 34.33651485 -0.71967261 1399 60 0 0.56500000 0.56500000 0.56500000
C 38.96155486 34.60834492 -1.98831711 1400 60 0 0.56500000 0.56500000 0.56500000
C 40.45315359 34.50085331 -1.83778024 1401 60 0 0.56500000 0.56500000 0.56500000
C 40.97970018 33.07121819 -2.31137270 1402 60 0 0.56500000 0.56500000 0.56500000
H 34.15318322 33.64616216 -2.07486043 1403 60 0 1.00000000 1.00000000 1.00000000
H 34.32226545 32.60204347 -0.58946971 1404 60 0 1.00000000 1.00000000 1.00000000
H 34.37936479 31.82697920 -2.16994751 1405 60 0 1.00000000 1.00000000 1.00000000
H 36.52024379 32.96515210 -2.78146352 1406 60 0 1.00000000 1.00000000 1.00000000
H 36.61706113 32.10157643 -1.34272851 1407 60 0 1.00000000 1.00000000 1.00000000
H 36.07948255 34.24546280 -0.10673653 1408 60 0 1.00000000 1.00000000 1.00000000
H 36.29545886 35.18987206 -1.53799118 1409 60 0 1.00000000 1.00000000 1.00000000
H 38.50823724 33.39099000 -0.24979251 1410 60 0 1.00000000 1.00000000 1.00000000
H 38.33668007 35.12687713 0.02540409 1411 60 0 1.00000000 1.00000000 1.00000000
H 38.77485941 35.65565417 -2.34511959 1412 60 0 1.00000000 1.00000000 1.00000000
H 38.61056623 33.86506913 -2.82174709 1413 60 0 1.00000000 1.00000000 1.00000000
H 40.86298068 34.67630044 -0.78106168 1414 60 0 1.00000000 1.00000000 1.00000000
H 40.96390429 35.22939295 -2.47916630 1415 60 0 1.00000000 1.00000000 1.00000000
H 40.41486464 32.78322363 -3.24241218 1416 60 0 1.00000000 1.00000000 1.00000000
H 40.93892632 32.35026822 -1.53269214 1417 60 0 1.00000000 1.00000000 1.00000000
H 42.03563056 33.17340494 -2.65996992 1418 60 0 1.00000000 1.00000000 1.00000000
C 22.11940745 4.83824037 27.97284364 1419 61 0 0.56500000 0.56500000 0.56500000
C 22.97025306 5.24678292 26.74627923 1420 61 0 0.56500000 0.56500000 0.56500000
C 24.43915723 5.54059005 26.99970469 1421 61 0 0.56500000 0.56500000 0.56500000
C 25.16720628 6.16565836 25.84837355 1422 61 0 0.56500000 0.56500000 0.56500000
C 26.74455698 6.17799593 26.27530002 1423 61 0 0.56500000 0.56500000 0.56500000
C 27.56555454 7.12862417 25.40162935 1424 61 0 0.56500000 0.56500000 0.56500000
C 27.68160049 8.59277364 25.87818869 1425 61 0 0.56500000 0.56500000 0.56500000
H 21.16158489 4.50253210 27.54952495 1426 61 0 1.00000000 1.00000000 1.00000000
H 21.93727649 5.69211855 28.63676747 1427 61 0 1.00000000 1.00000000 1.00000000
H 22.50438507 3.97965883 28.51720992 1428 61 0 1.00000000 1.00000000 1.00000000
H 22.46446098 6.09181987 26.26773045 1429 61 0 1.00000000 1.00000000 1.00000000
H 23.05356627 4.46997108 25.99420245 1430 61 0 1.00000000 1.00000000 1.00000000
H 24.97287407 4.63705220 27.29857923 1431 61 0 1.00000000 1.00000000 1.00000000
H 24.47992613 6.17901622 27.90769786 1432 61 0 1.00000000 1.00000000 1.00000000
H 24.78122073 7.20199538 25.55609367 1433 61 0 1.00000000 1.00000000 1.00000000
H 25.15001494 5.57845242 24.92121033 1434 61 0 1.00000000 1.00000000 1.00000000
H 27.09107208 5.21584044 26.01633420 1435 61 0 1.00000000 1.00000000 1.00000000
H 26.74827734 6.28713676 27.34831597 1436 61 0 1.00000000 1.00000000 1.00000000
H 26.97761937 7.30875127 24.41599433 1437 61 0 1.00000000 1.00000000 1.00000000
H 28.55679038 6.59173124 25.20922828 1438 61 0 1.00000000 1.00000000 1.00000000
H 26.82573589 8.94079213 26.47009582 1439 61 0 1.00000000 1.00000000 1.00000000
H 27.78941608 9.27990037 25.00814631 1440 61 0 1.00000000 1.00000000 1.00000000
H 28.51471921 8.77731116 26.57213356 1441 61 0 1.00000000 1.00000000 1.00000000
C 28.61055250 31.29493445 18.58339635 1442 62 0 0.56500000 0.56500000 0.56500000
C 28.70495299 32.16232701 17.33394397 1443 62 0 0.56500000 0.56500000 0.56500000
C 27.35880475 32.62670482 16.73360283 1444 62 0 0.56500000 0.56500000 0.56500000
C 26.72585516 33.92269834 17.41749275 1445 62 0 0.56500000 0.56500000 0.56500000
C 25.61287733 34.44197734 16.64695922 1446 62 0 0.56500000 0.56500000 0.56500000
C 24.89705536 35.63800820 17.17287455 1447 62 0 0.56500000 0.56500000 0.56500000
C 23.96190996 36.39765155 16.18066613 1448 62 0 0.56500000 0.56500000 0.56500000
H 27.79414189 31.50468339 19.26268347 1449 62 0 1.00000000 1.00000000 1.00000000
H 29.61212556 31.10906118 19.02919387 1450 62 0 1.00000000 1.00000000 1.00000000
H 28.38747020 30.21946332 18.20897983 1451 62 0 1.00000000 1.00000000 1.00000000
H 29.15169463 31.49263042 16.55121084 1452 62 0 1.00000000 1.00000000 1.00000000
H 29.39985252 32.96664057 17.48883364 1453 62 0 1.00000000 1.00000000 1.00000000
H 26.64606918 31.79196697 16.84541691 1454 62 0 1.00000000 1.00000000 1.00000000
H 27.48529947 32.79659671 15.62491979 1455 62 0 1.00000000 1.00000000 1.00000000
H 27.53129317 34.70299916 17.51169966 1456 62 0 1.00000000 1.00000000 1.00000000
H 26.35974988 33.75903462 18.40023852 1457 62 0 1.00000000 1.00000000 1.00000000
H 24.81596722 33.66938231 16.43822740 1458 62 0 1.00000000 1.00000000 1.00000000
H 25.94181802 34.83099734 15.62275381 1459 62 0 1.00000000 1.00000000 1.00000000
H 25.67173525 36.41661677 17.35511344 1460 62 0 1.00000000 1.00000000 1.00000000
H 24.39881968 35.37248249 18.11532548 1461 62 0 1.00000000 1.00000000 1.00000000
H 23.08954844 35.74593105 15.93136347 1462 62 0 1.00000000 1.00000000 1.00000000
H 24.42294262 36.75147481 15.25987554 1463 62 0 1.00000000 1.00000000 1.00000000
H 23.50277937 37.26374944 16.57302923 1464 62 0 1.00000000 1.00000000 1.00000000
C 18.15237968 5.44137820 6.98358172 1465 63 0 0.56500000 0.56500000 0.56500000
C 17.24594953 6.33110392 6.05830056 1466 63 0 0.56500000 0.56500000 0.56500000
C 16.84840790 7.68119953 6.65858306 1467 63 0 0.56500000 0.56500000 0.56500000
C 17.74258738 8.91413966 6.29110898 1468 63 0 0.56500000 0.56500000 0.56500000
C 18.06609875 8.98257856 4.78867045 1469 63 0 0.56500000 0.56500000 0.56500000
C 18.72080780 10.19871286 4.23595224 1470 63 0 0.56500000 0.56500000 0.56500000
C 20.10986113 10.36572121 4.77728884 1471 63 0 0.56500000 0.56500000 0.56500000
H 17.52501209 5.19727438 7.84147730 1472 63 0 1.00000000 1.00000000 1.00000000
H 18.93234598 6.13197291 7.27134755 1473 63 0 1.00000000 1.00000000 1.00000000
H 18.47566040 4.48716801 6.46203889 1474 63 0 1.00000000 1.00000000 1.00000000
H 16.28018099 5.78589408 5.82678695 1475 63 0 1.00000000 1.00000000 1.00000000
H 17.85320850 6.49942773 5.16000510 1476 63 0 1.00000000 1.00000000 1.00000000
H 16.90630482 7.53607661 7.68173634 1477 63 0 1.00000000 1.00000000 1.00000000
H 15.86606493 7.92792340 6.24514521 1478 63 0 1.00000000 1.00000000 1.00000000
H 18.71507194 8.95175016 6.82729238 1479 63 0 1.00000000 1.00000000 1.00000000
H 17.17008594 9.82855086 6.60833918 1480 63 0 1.00000000 1.00000000 1.00000000
H 17.13753483 8.69045517 4.29035979 1481 63 0 1.00000000 1.00000000 1.00000000
H 18.65990146 8.08409340 4.53987392 1482 63 0 1.00000000 1.00000000 1.00000000
H 17.98957132 11.07753271 4.41686919 1483 63 0 1.00000000 1.00000000 1.00000000
H 18.76588215 10.06464433 3.13115406 1484 63 0 1.00000000 1.00000000 1.00000000
H 20.74338574 9.48628717 4.63160267 1485 63 0 1.00000000 1.00000000 1.00000000
H 20.08346868 10.45568461 5.88457862 1486 63 0 1.00000000 1.00000000 1.00000000
H 20.55733427 11.27634052 4.42681486 1487 63 0 1.00000000 1.00000000 1.00000000
C 38.79360100 26.54881759 3.43977789 1488 64 0 0.56500000 0.56500000 0.56500000
C 37.32868300 26.23070179 3.90633219 1489 64 0 0.56500000 0.56500000 0.56500000
C 37.28411896 26.10662044 5.45088162 1490 64 0 0.56500000 0.56500000 0.56500000
C 36.07791584 25.48822057 6.05471526 1491 64 0 0.56500000 0.56500000 0.56500000
C 36.22539373 25.12570485 7.52306717 1492 64 0 0.56500000 0.56500000 0.56500000
C 34.89231085 24.60437039 8.06708516 1493 64 0 0.56500000 0.56500000 0.56500000
C 34.47853300 23.16922941 7.66683368 1494 64 0 0.56500000 0.56500000 0.56500000
H 38.90326646 26.71885525 2.36165539 1495 64 0 1.00000000 1.00000000 1.00000000
H 39.52812846 25.73271159 3.64214228 1496 64 0 1.00000000 1.00000000 1.00000000
H 39.14741423 27.47089362 3.91186445 1497 64 0 1.00000000 1.00000000 1.00000000
H 37.06358309 25.25180191 3.53758238 1498 64 0 1.00000000 1.00000000 1.00000000
H 36.65927990 27.00937971 3.55304551 1499 64 0 1.00000000 1.00000000 1.00000000
H 37.29323479 27.16565916 5.93462164 1500 64 0 1.00000000 1.00000000 1.00000000
H 38.17928860 25.69777735 5.83454788 1501 64 0 1.00000000 1.00000000 1.00000000
H 35.92313321 24.48200920 5.60644495 1502 64 0 1.00000000 1.00000000 1.00000000
H 35.22892503 26.10834890 5.92954488 1503 64 0 1.00000000 1.00000000 1.00000000
H 36.39151093 25.92647566 8.22078093 1504 64 0 1.00000000 1.00000000 1.00000000
H 37.04562168 24.41710467 7.79380222 1505 64 0 1.00000000 1.00000000 1.00000000
H 34.11795427 25.28466489 7.59285094 1506 64 0 1.00000000 1.00000000 1.00000000
H 34.89969317 24.64003296 9.18709512 1507 64 0 1.00000000 1.00000000 1.00000000
H 34.96382450 22.39875804 8.31976193 1508 64 0 1.00000000 1.00000000 1.00000000
H 34.75879818 22.95799058 6.62911895 1509 64 0 1.00000000 1.00000000 1.00000000
H 33.33795422 22.93764476 7.62444979 1510 64 0 1.00000000 1.00000000 1.00000000
C 7.62794873 44.80252230 18.80336897 1511 65 0 0.56500000 0.56500000 0.56500000
C 6.88800322 43.73392525 18.02916783 1512 65 0 0.56500000 0.56500000 0.56500000
C 5.91799429 44.40376652 17.04629439 1513 65 0 0.56500000 0.56500000 0.56500000
C 5.39252436 43.37399851 16.05077376 1514 65 0 0.56500000 0.56500000 0.56500000
C 4.53428640 44.05745712 14.94901564 1515 65 0 0.56500000 0.56500000 0.56500000
C 3.32767355 44.77946092 15.43134963 1516 65 0 0.56500000 0.56500000 0.56500000
C 2.59650994 45.34483464 14.16557636 1517 65 0 0.56500000 0.56500000 0.56500000
H 8.07717748 44.37326917 19.68937555 1518 65 0 1.00000000 1.00000000 1.00000000
H 6.92253619 45.57888653 19.09734000 1519 65 0 1.00000000 1.00000000 1.00000000
H 8.50908035 45.25809806 18.28092524 1520 65 0 1.00000000 1.00000000 1.00000000
H 6.35616515 43.05909409 18.68191351 1521 65 0 1.00000000 1.00000000 1.00000000
H 7.62603711 43.16697097 17.47712452 1522 65 0 1.00000000 1.00000000 1.00000000
H 6.32054522 45.27696334 16.59485453 1523 65 0 1.00000000 1.00000000 1.00000000
H 4.99797277 44.81267178 17.51409963 1524 65 0 1.00000000 1.00000000 1.00000000
H 4.83615718 42.64128671 16.59367698 1525 65 0 1.00000000 1.00000000 1.00000000
H 6.22486844 42.89406785 15.56276500 1526 65 0 1.00000000 1.00000000 1.00000000
H 4.24036278 43.32836013 14.17877842 1527 65 0 1.00000000 1.00000000 1.00000000
H 5.20942558 44.79896118 14.43500076 1528 65 0 1.00000000 1.00000000 1.00000000
H 3.55691374 45.70426554 16.07195467 1529 65 0 1.00000000 1.00000000 1.00000000
H 2.61939348 44.14935420 15.92542047 1530 65 0 1.00000000 1.00000000 1.00000000
H 2.16092954 44.57515825 13.43814696 1531 65 0 1.00000000 1.00000000 1.00000000
H 3.30548396 45.96185544 13.62933267 1532 65 0 1.00000000 1.00000000 1.00000000
H 1.83722921 46.01998421 14.47208225 1533 65 0 1.00000000 1.00000000 1.00000000
C 17.62252189 40.75132480 5.26402518 1534 66 0 0.56500000 0.56500000 0.56500000
C 16.60451815 39.71153496 5.55817767 1535 66 0 0.56500000 0.56500000 0.56500000
C 15.22887276 40.25618764 5.89234049 1536 66 0 0.56500000 0.56500000 0.56500000
C 14.60642870 41.26127348 4.96877402 1537 66 0 0.56500000 0.56500000 0.56500000
C 13.25119457 41.83321418 5.42382408 1538 66 0 0.56500000 0.56500000 0.56500000
C 12.56691746 42.68469244 4.36063097 1539 66 0 0.56500000 0.56500000 0.56500000
C 13.50435833 43.81491229 3.90546230 1540 66 0 0.56500000 0.56500000 0.56500000
H 17.25459891 41.51595870 4.64910686 1541 66 0 1.00000000 1.00000000 1.00000000
H 18.51568423 40.25059608 4.84375413 1542 66 0 1.00000000 1.00000000 1.00000000
H 17.93485299 41.23775345 6.25284013 1543 66 0 1.00000000 1.00000000 1.00000000
H 16.97731875 39.03600735 6.33898022 1544 66 0 1.00000000 1.00000000 1.00000000
H 16.43150024 39.08350728 4.67195526 1545 66 0 1.00000000 1.00000000 1.00000000
H 15.22577790 40.71512396 6.87866855 1546 66 0 1.00000000 1.00000000 1.00000000
H 14.52920954 39.38714749 5.95869567 1547 66 0 1.00000000 1.00000000 1.00000000
H 14.52096513 40.89687775 3.92512600 1548 66 0 1.00000000 1.00000000 1.00000000
H 15.23883089 42.09154600 4.96517626 1549 66 0 1.00000000 1.00000000 1.00000000
H 13.41158071 42.54968563 6.28684833 1550 66 0 1.00000000 1.00000000 1.00000000
H 12.57145525 41.04115694 5.86617592 1551 66 0 1.00000000 1.00000000 1.00000000
H 11.71266582 43.21608925 4.73260948 1552 66 0 1.00000000 1.00000000 1.00000000
H 12.19284973 42.06618683 3.56741024 1553 66 0 1.00000000 1.00000000 1.00000000
H 14.30122395 43.43772854 3.33505375 1554 66 0 1.00000000 1.00000000 1.00000000
H 14.02754293 44.12948466 4.85282442 1555 66 0 1.00000000 1.00000000 1.00000000
H 12.91414309 44.62128909 3.43727232 1556 66 0 1.00000000 1.00000000 1.00000000
C 17.87276104 39.10247993 -6.31912090 1557 67 0 0.56500000 0.56500000 0.56500000
C 16.34281981 38.81013702 -6.09796204 1558 67 0 0.56500000 0.56500000 0.56500000
C 15.48290281 39.99272245 -5.79555555 1559 67 0 0.56500000 0.56500000 0.56500000
C 15.93707891 40.97431817 -4.73266729 1560 67 0 0.56500000 0.56500000 0.56500000
C 15.87833319 40.53019813 -3.22636200 1561 67 0 0.56500000 0.56500000 0.56500000
C 14.58454849 39.86447894 -2.59277625 1562 67 0 0.56500000 0.56500000 0.56500000
C 13.26251585 40.55661537 -2.45539018 1563 67 0 0.56500000 0.56500000 0.56500000
H 18.06837352 40.02900457 -6.88428313 1564 67 0 1.00000000 1.00000000 1.00000000
H 18.15241760 38.33322863 -7.00967372 1565 67 0 1.00000000 1.00000000 1.00000000
H 18.48944279 39.12338925 -5.37546923 1566 67 0 1.00000000 1.00000000 1.00000000
H 16.33524852 37.99601358 -5.32320040 1567 67 0 1.00000000 1.00000000 1.00000000
H 15.93944256 38.28921090 -6.98869959 1568 67 0 1.00000000 1.00000000 1.00000000
H 14.50111836 39.58703022 -5.54426809 1569 67 0 1.00000000 1.00000000 1.00000000
H 15.35825843 40.45034721 -6.71569353 1570 67 0 1.00000000 1.00000000 1.00000000
H 15.23470386 41.81747922 -4.85825754 1571 67 0 1.00000000 1.00000000 1.00000000
H 17.00105358 41.29316164 -4.89247666 1572 67 0 1.00000000 1.00000000 1.00000000
H 16.09929846 41.41945195 -2.62829506 1573 67 0 1.00000000 1.00000000 1.00000000
H 16.67427739 39.82939185 -3.01456065 1574 67 0 1.00000000 1.00000000 1.00000000
H 14.89207487 39.76426321 -1.54281355 1575 67 0 1.00000000 1.00000000 1.00000000
H 14.53333814 38.93637472 -3.07881298 1576 67 0 1.00000000 1.00000000 1.00000000
H 12.61188185 40.59421144 -3.40421601 1577 67 0 1.00000000 1.00000000 1.00000000
H 13.37721965 41.59993276 -2.07707789 1578 67 0 1.00000000 1.00000000 1.00000000
H 12.56337362 39.96538136 -1.83645441 1579 67 0 1.00000000 1.00000000 1.00000000
C 38.00152579 18.24586632 -3.59247229 1580 68 0 0.56500000 0.56500000 0.56500000
C 37.86844964 19.67762994 -4.12232979 1581 68 0 0.56500000 0.56500000 0.56500000
C 38.97282782 20.60268718 -3.57675778 1582 68 0 0.56500000 0.56500000 0.56500000
C 38.78750674 22.05951786 -3.95409890 1583 68 0 0.56500000 0.56500000 0.56500000
C 39.66978012 23.00718433 -3.25500122 1584 68 0 0.56500000 0.56500000 0.56500000
C 41.14515739 22.68919834 -3.35475168 1585 68 0 0.56500000 0.56500000 0.56500000
C 42.10048875 23.83357930 -2.71764918 1586 68 0 0.56500000 0.56500000 0.56500000
H 38.35668029 18.34718017 -2.54506510 1587 68 0 1.00000000 1.00000000 1.00000000
H 38.80277355 17.74032081 -4.14541745 1588 68 0 1.00000000 1.00000000 1.00000000
H 37.03259141 17.73785385 -3.85528849 1589 68 0 1.00000000 1.00000000 1.00000000
H 36.85104470 20.06785804 -3.98561390 1590 68 0 1.00000000 1.00000000 1.00000000
H 37.93668103 19.66109911 -5.23862655 1591 68 0 1.00000000 1.00000000 1.00000000
H 39.96306392 20.20348491 -3.95220267 1592 68 0 1.00000000 1.00000000 1.00000000
H 39.01013722 20.56982257 -2.46467291 1593 68 0 1.00000000 1.00000000 1.00000000
H 37.79468742 22.38317761 -3.71774384 1594 68 0 1.00000000 1.00000000 1.00000000
H 38.89280468 22.11670587 -5.05037758 1595 68 0 1.00000000 1.00000000 1.00000000
H 39.33807595 22.98916683 -2.19969271 1596 68 0 1.00000000 1.00000000 1.00000000
H 39.44746659 23.99471355 -3.58232046 1597 68 0 1.00000000 1.00000000 1.00000000
H 41.47060406 22.53998841 -4.40047879 1598 68 0 1.00000000 1.00000000 1.00000000
H 41.50168754 21.77560462 -2.89769145 1599 68 0 1.00000000 1.00000000 1.00000000
H 43.04769846 23.84463257 -3.21111858 1600 68 0 1.00000000 1.00000000 1.00000000
H 42.30077823 23.71032408 -1.62003832 1601 68 0 1.00000000 1.00000000 1.00000000
H 41.61107675 24.83234150 -2.90041957 1602 68 0 1.00000000 1.00000000 1.00000000
C 16.71922553 46.85297065 16.84656415 1603 69 0 0.56500000 0.56500000 0.56500000
C 15.83434377 45.69165004 17.09243937 1604 69 0 0.56500000 0.56500000 0.56500000
C 15.79140541 44.67761522 16.05630404 1605 69 0 0.56500000 0.56500000 0.56500000
C 15.07392301 43.41212676 16.40264292 1606 69 0 0.56500000 0.56500000 0.56500000
C 14.75527126 42.49500240 15.20870320 1607 69 0 0.56500000 0.56500000 0.56500000
C 13.69978332 41.43013315 15.37706351 1608 69 0 0.56500000 0.56500000 0.56500000
C 14.14588091 40.33432689 16.35492611 1609 69 0 0.56500000 0.56500000 0.56500000
H 17.77830755 46.55007633 16.74111340 1610 69 0 1.00000000 1.00000000 1.00000000
H 16.70417939 47.50923901 17.74764687 1611 69 0 1.00000000 1.00000000 1.00000000
H 16.31137761 47.31735880 15.99777092 1612 69 0 1.00000000 1.00000000 1.00000000
H 14.83808459 46.01914077 17.45201915 1613 69 0 1.00000000 1.00000000 1.00000000
H 16.28617849 45.22034038 17.99633465 1614 69 0 1.00000000 1.00000000 1.00000000
H 16.80253252 44.40686177 15.78058898 1615 69 0 1.00000000 1.00000000 1.00000000
H 15.30674613 45.04818096 15.08280463 1616 69 0 1.00000000 1.00000000 1.00000000
H 14.15875137 43.55076974 16.94173709 1617 69 0 1.00000000 1.00000000 1.00000000
H 15.70227660 42.80597009 17.12034385 1618 69 0 1.00000000 1.00000000 1.00000000
H 15.67839769 41.96857874 14.88181935 1619 69 0 1.00000000 1.00000000 1.00000000
H 14.61223569 43.22195571 14.31888509 1620 69 0 1.00000000 1.00000000 1.00000000
H 13.51793454 41.05441871 14.34429152 1621 69 0 1.00000000 1.00000000 1.00000000
H 12.70264743 41.91703492 15.74516773 1622 69 0 1.00000000 1.00000000 1.00000000
H 13.30467826 39.68597648 16.57963479 1623 69 0 1.00000000 1.00000000 1.00000000
H 14.47693280 40.72941967 17.28938142 1624 69 0 1.00000000 1.00000000 1.00000000
H 14.94939510 39.71783534 15.95461263 1625 69 0 1.00000000 1.00000000 1.00000000
C 29.86669491 33.48397524 8.05159920 1626 70 0 0.56500000 0.56500000 0.56500000
C 29.43329013 34.19646142 6.76828071 1627 70 0 0.56500000 0.56500000 0.56500000
C 30.44159573 33.79324777 5.63013114 1628 70 0 0.56500000 0.56500000 0.56500000
C 30.31333714 32.39343224 5.13558061 1629 70 0 0.56500000 0.56500000 0.56500000
C 29.14722536 32.38274648 4.07921346 1630 70 0 0.56500000 0.56500000 0.56500000
C 28.93831046 30.97752794 3.38648293 1631 70 0 0.56500000 0.56500000 0.56500000
C 30.09803174 30.17776401 2.85481626 1632 70 0 0.56500000 0.56500000 0.56500000
H 30.91901399 33.63341964 8.38043709 1633 70 0 1.00000000 1.00000000 1.00000000
H 29.67059499 32.42777292 7.95582081 1634 70 0 1.00000000 1.00000000 1.00000000
H 29.30126123 33.86124804 8.90974189 1635 70 0 1.00000000 1.00000000 1.00000000
H 29.56007220 35.27118646 6.88071149 1636 70 0 1.00000000 1.00000000 1.00000000
H 28.37517135 33.87708993 6.47766055 1637 70 0 1.00000000 1.00000000 1.00000000
H 31.45595602 34.16528996 5.93789382 1638 70 0 1.00000000 1.00000000 1.00000000
H 30.18382538 34.40722132 4.76003995 1639 70 0 1.00000000 1.00000000 1.00000000
H 30.05164480 31.62304065 5.83362442 1640 70 0 1.00000000 1.00000000 1.00000000
H 31.14092302 32.04727206 4.61775971 1641 70 0 1.00000000 1.00000000 1.00000000
H 29.23590022 33.20687501 3.35393764 1642 70 0 1.00000000 1.00000000 1.00000000
H 28.22825140 32.58605434 4.63313637 1643 70 0 1.00000000 1.00000000 1.00000000
H 28.15012545 31.20758020 2.63200608 1644 70 0 1.00000000 1.00000000 1.00000000
H 28.40338103 30.29070497 4.12493229 1645 70 0 1.00000000 1.00000000 1.00000000
H 29.73369122 29.44883339 2.09213421 1646 70 0 1.00000000 1.00000000 1.00000000
H 30.43354965 29.57534970 3.68385991 1647 70 0 1.00000000 1.00000000 1.00000000
H 30.96911841 30.76819565 2.47810738 1648 70 0 1.00000000 1.00000000 1.00000000
C 25.10186437 27.03305454 35.33645212 1649 71 0 0.56500000 0.56500000 0.56500000
C 25.01563594 25.56805401 35.90475297 1650 71 0 0.56500000 0.56500000 0.56500000
C 26.37023155 24.76815932 35.91249706 1651 71 0 0.56500000 0.56500000 0.56500000
C 26.09240007 23.26519107 36.17341415 1652 71 0 0.56500000 0.56500000 0.56500000
C 27.23317902 22.23611556 36.38727903 1653 71 0 0.56500000 0.56500000 0.56500000
C 26.64856442 20.85504088 36.31497509 1654 71 0 0.56500000 0.56500000 0.56500000
C 27.74588529 19.72782782 36.48173679 1655 71 0 0.56500000 0.56500000 0.56500000
H 24.15771459 27.55136421 35.50876218 1656 71 0 1.00000000 1.00000000 1.00000000
H 25.30024682 26.91793498 34.26777181 1657 71 0 1.00000000 1.00000000 1.00000000
H 25.97349451 27.47495112 35.78226584 1658 71 0 1.00000000 1.00000000 1.00000000
H 24.24793475 24.96116690 35.53118885 1659 71 0 1.00000000 1.00000000 1.00000000
H 24.89262550 25.64610599 36.96093527 1660 71 0 1.00000000 1.00000000 1.00000000
H 27.01722184 25.11530147 36.73551820 1661 71 0 1.00000000 1.00000000 1.00000000
H 27.10470787 24.83420047 35.04948303 1662 71 0 1.00000000 1.00000000 1.00000000
H 25.49399060 22.92094613 35.32873914 1663 71 0 1.00000000 1.00000000 1.00000000
H 25.44867735 23.32868690 37.04737652 1664 71 0 1.00000000 1.00000000 1.00000000
H 27.85129121 22.39088326 37.28915306 1665 71 0 1.00000000 1.00000000 1.00000000
H 27.96040704 22.38934632 35.53757263 1666 71 0 1.00000000 1.00000000 1.00000000
H 26.08831131 20.62809172 35.37293081 1667 71 0 1.00000000 1.00000000 1.00000000
H 25.81410710 20.88530598 37.02252942 1668 71 0 1.00000000 1.00000000 1.00000000
H 28.71041458 20.06027115 36.02368884 1669 71 0 1.00000000 1.00000000 1.00000000
H 27.35004061 18.81079814 36.06856212 1670 71 0 1.00000000 1.00000000 1.00000000
H 27.89760909 19.55105865 37.49992735 1671 71 0 1.00000000 1.00000000 1.00000000
C 31.75934347 44.49492279 26.64647307 1672 72 0 0.56500000 0.56500000 0.56500000
C 32.53405974 44.40289991 25.31792430 1673 72 0 0.56500000 0.56500000 0.56500000
C 31.62624229 44.00494916 24.15325901 1674 72 0 0.56500000 0.56500000 0.56500000
C 30.66801896 45.14145289 23.76939462 1675 72 0 0.56500000 0.56500000 0.56500000
C 29.33582094 44.75003861 23.01092060 1676 72 0 0.56500000 0.56500000 0.56500000
C 28.27414972 45.89683195 23.03149812 1677 72 0 0.56500000 0.56500000 0.56500000
C 28.59029778 47.07888896 21.95150748 1678 72 0 0.56500000 0.56500000 0.56500000
H 32.32890088 44.96816459 27.44422146 1679 72 0 1.00000000 1.00000000 1.00000000
H 31.49245141 43.53756155 27.07945842 1680 72 0 1.00000000 1.00000000 1.00000000
H 30.85514425 45.09343968 26.67434717 1681 72 0 1.00000000 1.00000000 1.00000000
H 33.32865379 43.65540568 25.46221214 1682 72 0 1.00000000 1.00000000 1.00000000
H 32.97712978 45.44772443 25.11662652 1683 72 0 1.00000000 1.00000000 1.00000000
H 31.08595164 43.04413887 24.49858595 1684 72 0 1.00000000 1.00000000 1.00000000
H 32.18778940 43.89547237 23.23694944 1685 72 0 1.00000000 1.00000000 1.00000000
H 31.21062914 45.82236644 23.12995416 1686 72 0 1.00000000 1.00000000 1.00000000
H 30.28420412 45.77836168 24.59943779 1687 72 0 1.00000000 1.00000000 1.00000000
H 28.94664569 43.89445010 23.58393085 1688 72 0 1.00000000 1.00000000 1.00000000
H 29.62446013 44.40430167 22.03259532 1689 72 0 1.00000000 1.00000000 1.00000000
H 28.21684652 46.17417881 24.10984953 1690 72 0 1.00000000 1.00000000 1.00000000
H 27.26593328 45.49660308 22.80010592 1691 72 0 1.00000000 1.00000000 1.00000000
H 28.47752554 46.54364689 20.94073802 1692 72 0 1.00000000 1.00000000 1.00000000
H 29.59381816 47.49109339 22.14682783 1693 72 0 1.00000000 1.00000000 1.00000000
H 27.78350393 47.83520550 21.88085794 1694 72 0 1.00000000 1.00000000 1.00000000
C 25.44436179 17.96619796 32.88736097 1695 73 0 0.56500000 0.56500000 0.56500000
C 25.96373688 16.63403534 33.63147026 1696 73 0 0.56500000 0.56500000 0.56500000
C 27.29978824 16.14761401 33.32951760 1697 73 0 0.56500000 0.56500000 0.56500000
C 27.68396145 14.76570322 33.94939258 1698 73 0 0.56500000 0.56500000 0.56500000
C 29.00770739 14.22297261 33.49577456 1699 73 0 0.56500000 0.56500000 0.56500000
C 29.38218500 12.80822777 34.06498097 1700 73 0 0.56500000 0.56500000 0.56500000
C 30.44709542 12.15093354 33.16720888 1701 73 0 0.56500000 0.56500000 0.56500000
H 26.06805256 18.81941848 33.20133746 1702 73 0 1.00000000 1.00000000 1.00000000
H 24.45722281 18.29983215 33.17463459 1703 73 0 1.00000000 1.00000000 1.00000000
H 25.52041005 17.87770825 31.79869259 1704 73 0 1.00000000 1.00000000 1.00000000
H 25.26367029 15.78924265 33.39377539 1705 73 0 1.00000000 1.00000000 1.00000000
H 25.90137090 16.81658623 34.69952821 1706 73 0 1.00000000 1.00000000 1.00000000
H 28.09754107 16.84734080 33.54241505 1707 73 0 1.00000000 1.00000000 1.00000000
H 27.33020506 16.02666174 32.26825230 1708 73 0 1.00000000 1.00000000 1.00000000
H 26.80754627 14.05000542 33.86656061 1709 73 0 1.00000000 1.00000000 1.00000000
H 27.67772126 14.84371238 35.12869852 1710 73 0 1.00000000 1.00000000 1.00000000
H 29.75574417 14.92469428 33.79158099 1711 73 0 1.00000000 1.00000000 1.00000000
H 28.98146813 14.09405210 32.45345856 1712 73 0 1.00000000 1.00000000 1.00000000
H 28.40583230 12.31638220 34.01552860 1713 73 0 1.00000000 1.00000000 1.00000000
H 29.75811332 12.99759848 35.11844553 1714 73 0 1.00000000 1.00000000 1.00000000
H 31.46528522 12.20569080 33.47421402 1715 73 0 1.00000000 1.00000000 1.00000000
H 30.26273667 12.23870249 32.09484134 1716 73 0 1.00000000 1.00000000 1.00000000
H 30.36669651 11.10073090 33.37978507 1717 73 0 1.00000000 1.00000000 1.00000000
C 7.90599432 39.12444213 31.03016630 1718 74 0 0.56500000 0.56500000 0.56500000
C 6.69985901 38.51595327 30.25569560 1719 74 0 0.56500000 0.56500000 0.56500000
C 7.13382518 37.52019713 29.22743853 1720 74 0 0.56500000 0.56500000 0.56500000
C 5.89952074 36.76540674 28.55555030 1721 74 0 0.56500000 0.56500000 0.56500000
C 6.28460433 35.47778787 27.80330484 1722 74 0 0.56500000 0.56500000 0.56500000
C 5.05644723 34.96572638 27.07517864 1723 74 0 0.56500000 0.56500000 0.56500000
C 5.36713260 33.69280924 26.26157713 1724 74 0 0.56500000 0.56500000 0.56500000
H 8.66572581 39.61079807 30.39837154 1725 74 0 1.00000000 1.00000000 1.00000000
H 8.44759181 38.35695228 31.61108486 1726 74 0 1.00000000 1.00000000 1.00000000
H 7.41086885 39.91131462 31.64404507 1727 74 0 1.00000000 1.00000000 1.00000000
H 6.11984998 39.28722029 29.86182109 1728 74 0 1.00000000 1.00000000 1.00000000
H 6.03767635 37.98012263 31.01804064 1729 74 0 1.00000000 1.00000000 1.00000000
H 7.72108021 36.79939736 29.79374868 1730 74 0 1.00000000 1.00000000 1.00000000
H 7.74317906 37.90122497 28.41089189 1731 74 0 1.00000000 1.00000000 1.00000000
H 5.35094923 37.50035582 27.94668323 1732 74 0 1.00000000 1.00000000 1.00000000
H 5.21990195 36.49774396 29.38751634 1733 74 0 1.00000000 1.00000000 1.00000000
H 6.68814851 34.84044298 28.59462188 1734 74 0 1.00000000 1.00000000 1.00000000
H 7.17951081 35.70447638 27.04155133 1735 74 0 1.00000000 1.00000000 1.00000000
H 4.69218715 35.66291048 26.36342195 1736 74 0 1.00000000 1.00000000 1.00000000
H 4.23573500 34.73663422 27.80950349 1737 74 0 1.00000000 1.00000000 1.00000000
H 4.63086114 33.61971514 25.46637358 1738 74 0 1.00000000 1.00000000 1.00000000
H 5.24716468 32.70414770 26.78338220 1739 74 0 1.00000000 1.00000000 1.00000000
H 6.37643489 33.82292026 25.88431002 1740 74 0 1.00000000 1.00000000 1.00000000
C 23.89474365 34.89913461 29.56172038 1741 75 0 0.56500000 0.56500000 0.56500000
C 24.73606208 36.19720322 29.46956757 1742 75 0 0.56500000 0.56500000 0.56500000
C 23.79995321 37.39406409 29.34598368 1743 75 0 0.56500000 0.56500000 0.56500000
C 24.54308829 38.76097649 29.27652345 1744 75 0 0.56500000 0.56500000 0.56500000
C 23.51701662 39.91188491 29.06812959 1745 75 0 0.56500000 0.56500000 0.56500000
C 24.17881131 41.24458670 28.62289932 1746 75 0 0.56500000 0.56500000 0.56500000
C 23.23506459 42.48821053 28.42447708 1747 75 0 0.56500000 0.56500000 0.56500000
H 23.07317043 34.85564601 28.91468493 1748 75 0 1.00000000 1.00000000 1.00000000
H 23.46734731 34.93568427 30.59823203 1749 75 0 1.00000000 1.00000000 1.00000000
H 24.59040679 34.02040390 29.52441294 1750 75 0 1.00000000 1.00000000 1.00000000
H 25.34788624 36.08879726 28.51731823 1751 75 0 1.00000000 1.00000000 1.00000000
H 25.49430089 36.36951886 30.25425503 1752 75 0 1.00000000 1.00000000 1.00000000
H 23.20496845 37.31060622 30.22452202 1753 75 0 1.00000000 1.00000000 1.00000000
H 23.18525439 37.30473953 28.49072038 1754 75 0 1.00000000 1.00000000 1.00000000
H 25.22307947 38.71392251 28.47494146 1755 75 0 1.00000000 1.00000000 1.00000000
H 25.04651272 38.82656723 30.19600199 1756 75 0 1.00000000 1.00000000 1.00000000
H 22.82537973 40.05866050 29.92443821 1757 75 0 1.00000000 1.00000000 1.00000000
H 22.81136268 39.61308205 28.29296019 1758 75 0 1.00000000 1.00000000 1.00000000
H 24.73853165 40.95874916 27.70167377 1759 75 0 1.00000000 1.00000000 1.00000000
H 24.99148106 41.65501682 29.17630896 1760 75 0 1.00000000 1.00000000 1.00000000
H 23.62874864 43.05833963 27.51413514 1761 75 0 1.00000000 1.00000000 1.00000000
H 23.28223003 43.24606553 29.22230940 1762 75 0 1.00000000 1.00000000 1.00000000
H 22.20412499 42.22393050 28.25367248 1763 75 0 1.00000000 1.00000000 1.00000000
C 8.34036949 12.98929509 25.57482726 1764 76 0 0.56500000 0.56500000 0.56500000
C 7.10929673 12.74777066 24.70025324 1765 76 0 0.56500000 0.56500000 0.56500000
C 6.66378118 14.04540282 23.93982266 1766 76 0 0.56500000 0.56500000 0.56500000
C 5.94713264 14.93997006 24.91052066 1767 76 0 0.56500000 0.56500000 0.56500000
C 5.28772574 16.23682079 24.37170353 1768 76 0 0.56500000 0.56500000 0.56500000
C 6.29557572 17.34277913 24.02346540 1769 76 0 0.56500000 0.56500000 0.56500000
C 6.42933858 17.91052789 22.59132887 1770 76 0 0.56500000 0.56500000 0.56500000
H 8.45134799 12.00308266 26.01998840 1771 76 0 1.00000000 1.00000000 1.00000000
H 8.07421826 13.66110344 26.32379475 1772 76 0 1.00000000 1.00000000 1.00000000
H 9.20421194 13.23316465 24.97305492 1773 76 0 1.00000000 1.00000000 1.00000000
H 6.27198275 12.31312614 25.27891847 1774 76 0 1.00000000 1.00000000 1.00000000
H 7.37520756 12.01565083 23.91745474 1775 76 0 1.00000000 1.00000000 1.00000000
H 6.10804724 13.98783610 22.99549345 1776 76 0 1.00000000 1.00000000 1.00000000
H 7.50405724 14.73680254 23.61311856 1777 76 0 1.00000000 1.00000000 1.00000000
H 6.69530773 15.31764264 25.73660269 1778 76 0 1.00000000 1.00000000 1.00000000
H 5.16985608 14.35557929 25.41213155 1779 76 0 1.00000000 1.00000000 1.00000000
H 4.70455024 16.64442097 25.23327145 1780 76 0 1.00000000 1.00000000 1.00000000
H 4.61162802 16.04190494 23.56068167 1781 76 0 1.00000000 1.00000000 1.00000000
H 7.21970508 16.88127878 24.34689653 1782 76 0 1.00000000 1.00000000 1.00000000
H 6.14595787 18.26371238 24.59159572 1783 76 0 1.00000000 1.00000000 1.00000000
H 6.52499267 17.09969503 21.83847031 1784 76 0 1.00000000 1.00000000 1.00000000
H 7.39226466 18.49218587 22.59489069 1785 76 0 1.00000000 1.00000000 1.00000000
H 5.54465670 18.51484556 22.43719305 1786 76 0 1.00000000 1.00000000 1.00000000
C 15.55016432 12.37089051 29.32242775 1787 77 0 0.56500000 0.56500000 0.56500000
C 16.89968989 13.06407910 29.19324103 1788 77 0 0.56500000 0.56500000 0.56500000
C 16.68786736 14.56355797 29.05756080 1789 77 0 0.56500000 0.56500000 0.56500000
C 15.86794443 15.21094984 30.21237676 1790 77 0 0.56500000 0.56500000 0.56500000
C 15.97079435 16.75829769 30.27083459 1791 77 0 0.56500000 0.56500000 0.56500000
C 15.26679497 17.53557663 31.41083836 1792 77 0 0.56500000 0.56500000 0.56500000
C 13.83554573 16.99842963 31.45578240 1793 77 0 0.56500000 0.56500000 0.56500000
H 14.95504214 12.87005306 30.12392831 1794 77 0 1.00000000 1.00000000 1.00000000
H 15.70350351 11.32893317 29.59298747 1795 77 0 1.00000000 1.00000000 1.00000000
H 14.99672031 12.41540768 28.40817166 1796 77 0 1.00000000 1.00000000 1.00000000
H 17.57430466 12.66612981 28.40202433 1797 77 0 1.00000000 1.00000000 1.00000000
H 17.41150735 12.90272480 30.11885166 1798 77 0 1.00000000 1.00000000 1.00000000
H 16.17744284 14.75827389 28.09451446 1799 77 0 1.00000000 1.00000000 1.00000000
H 17.60868980 15.14704871 29.04892816 1800 77 0 1.00000000 1.00000000 1.00000000
H 16.29657612 14.87440615 31.12447414 1801 77 0 1.00000000 1.00000000 1.00000000
H 14.81387719 14.85387931 30.18023028 1802 77 0 1.00000000 1.00000000 1.00000000
H 15.59188108 17.12988177 29.31262393 1803 77 0 1.00000000 1.00000000 1.00000000
H 17.00912389 16.96124074 30.29215273 1804 77 0 1.00000000 1.00000000 1.00000000
H 15.29763736 18.65151465 31.29888198 1805 77 0 1.00000000 1.00000000 1.00000000
H 15.73703553 17.26061806 32.41383733 1806 77 0 1.00000000 1.00000000 1.00000000
H 13.36897170 17.00797748 30.40114881 1807 77 0 1.00000000 1.00000000 1.00000000
H 13.23525237 17.64448099 32.04116732 1808 77 0 1.00000000 1.00000000 1.00000000
H 13.72632337 16.03011307 31.86198019 1809 77 0 1.00000000 1.00000000 1.00000000
C 45.47836346 14.41760450 19.52961710 1810 78 0 0.56500000 0.56500000 0.56500000
C 45.69770188 12.94074009 19.27636662 1811 78 0 0.56500000 0.56500000 0.56500000
C 45.20086307 12.05255079 20.43600217 1812 78 0 0.56500000 0.56500000 0.56500000
C 44.99705337 10.57175854 20.02782210 1813 78 0 0.56500000 0.56500000 0.56500000
C 46.27447935 9.71873813 19.81099072 1814 78 0 0.56500000 0.56500000 0.56500000
C 46.16899063 8.35356810 19.02107748 1815 78 0 0.56500000 0.56500000 0.56500000
C 45.07773857 7.38167555 19.42527899 1816 78 0 0.56500000 0.56500000 0.56500000
H 45.73239978 15.01977955 18.62872662 1817 78 0 1.00000000 1.00000000 1.00000000
H 46.07393366 14.82053926 20.29084640 1818 78 0 1.00000000 1.00000000 1.00000000
H 44.46697338 14.64288252 19.90470873 1819 78 0 1.00000000 1.00000000 1.00000000
H 46.67541520 12.70142765 19.02425858 1820 78 0 1.00000000 1.00000000 1.00000000
H 45.11714284 12.66346678 18.36551514 1821 78 0 1.00000000 1.00000000 1.00000000
H 44.20963750 12.41392757 20.63867301 1822 78 0 1.00000000 1.00000000 1.00000000
H 45.86736403 12.10516768 21.22836894 1823 78 0 1.00000000 1.00000000 1.00000000
H 44.30103983 10.53149355 19.19525734 1824 78 0 1.00000000 1.00000000 1.00000000
H 44.41554726 10.10205740 20.85265816 1825 78 0 1.00000000 1.00000000 1.00000000
H 46.66663928 9.38792816 20.76164867 1826 78 0 1.00000000 1.00000000 1.00000000
H 47.02144906 10.48503773 19.45778714 1827 78 0 1.00000000 1.00000000 1.00000000
H 47.15676231 7.82368813 19.13242505 1828 78 0 1.00000000 1.00000000 1.00000000
H 46.02597803 8.60405398 17.95470770 1829 78 0 1.00000000 1.00000000 1.00000000
H 45.11539209 7.20117249 20.52775264 1830 78 0 1.00000000 1.00000000 1.00000000
H 45.06850223 6.36042635 18.89617228 1831 78 0 1.00000000 1.00000000 1.00000000
H 44.08902813 7.86245999 19.37290833 1832 78 0 1.00000000 1.00000000 1.00000000
C 40.45520604 44.15531543 22.21206599 1833 79 0 0.56500000 0.56500000 0.56500000
C 39.62423734 42.89589302 22.01533024 1834 79 0 0.56500000 0.56500000 0.56500000
C 40.26065964 41.53540682 22.46672909 1835 79 0 0.56500000 0.56500000 0.56500000
C 40.95605487 41.55394431 23.83423280 1836 79 0 0.56500000 0.56500000 0.56500000
C 41.55632487 40.25316568 24.18122598 1837 79 0 0.56500000 0.56500000 0.56500000
C 40.51348771 39.16349501 24.58047465 1838 79 0 0.56500000 0.56500000 0.56500000
C 41.11249929 37.82000266 25.15425941 1839 79 0 0.56500000 0.56500000 0.56500000
H 40.80382211 44.43993385 23.24123000 1840 79 0 1.00000000 1.00000000 1.00000000
H 39.81488276 45.06754482 21.98692597 1841 79 0 1.00000000 1.00000000 1.00000000
H 41.27836609 44.14177612 21.45104880 1842 79 0 1.00000000 1.00000000 1.00000000
H 39.42910977 42.75776382 20.94025639 1843 79 0 1.00000000 1.00000000 1.00000000
H 38.72480581 42.97858513 22.58690437 1844 79 0 1.00000000 1.00000000 1.00000000
H 41.06788968 41.10946464 21.83531702 1845 79 0 1.00000000 1.00000000 1.00000000
H 39.53619321 40.76840499 22.42884691 1846 79 0 1.00000000 1.00000000 1.00000000
H 40.21703760 41.79265318 24.62309516 1847 79 0 1.00000000 1.00000000 1.00000000
H 41.68308807 42.40823994 23.85727819 1848 79 0 1.00000000 1.00000000 1.00000000
H 42.27475500 40.36733749 24.96224396 1849 79 0 1.00000000 1.00000000 1.00000000
H 42.21059452 39.89731951 23.29239524 1850 79 0 1.00000000 1.00000000 1.00000000
H 39.77288090 38.96418043 23.79660435 1851 79 0 1.00000000 1.00000000 1.00000000
H 39.84351222 39.53609495 25.36075543 1852 79 0 1.00000000 1.00000000 1.00000000
H 41.68394517 37.92511447 26.06297778 1853 79 0 1.00000000 1.00000000 1.00000000
H 41.78963348 37.42351993 24.40850307 1854 79 0 1.00000000 1.00000000 1.00000000
H 40.38069932 37.07474507 25.40404883 1855 79 0 1.00000000 1.00000000 1.00000000
C 9.04793637 15.98798438 10.79700014 1856 80 0 0.56500000 0.56500000 0.56500000
C 7.79941018 16.65621773 10.06145636 1857 80 0 0.56500000 0.56500000 0.56500000
C 6.73234735 15.62488850 9.79024125 1858 80 0 0.56500000 0.56500000 0.56500000
C 5.55660175 16.21089902 9.01019143 1859 80 0 0.56500000 0.56500000 0.56500000
C 4.36220593 15.22295709 8.62786882 1860 80 0 0.56500000 0.56500000 0.56500000
C 3.15503011 15.94266475 7.99005506 1861 80 0 0.56500000 0.56500000 0.56500000
C 2.08690613 14.92894345 7.69380510 1862 80 0 0.56500000 0.56500000 0.56500000
H 9.84470972 16.71421017 11.04900303 1863 80 0 1.00000000 1.00000000 1.00000000
H 9.43655794 15.34467952 10.03115919 1864 80 0 1.00000000 1.00000000 1.00000000
H 8.80078081 15.35159391 11.64093075 1865 80 0 1.00000000 1.00000000 1.00000000
H 8.16214022 17.11720226 9.07604958 1866 80 0 1.00000000 1.00000000 1.00000000
H 7.37224819 17.45913980 10.63324777 1867 80 0 1.00000000 1.00000000 1.00000000
H 6.35590450 15.18612903 10.78458842 1868 80 0 1.00000000 1.00000000 1.00000000
H 7.17929819 14.77926891 9.30159899 1869 80 0 1.00000000 1.00000000 1.00000000
H 5.94137417 16.81087625 8.14779105 1870 80 0 1.00000000 1.00000000 1.00000000
H 5.09691327 16.94835979 9.61538840 1871 80 0 1.00000000 1.00000000 1.00000000
H 4.12946928 14.60906979 9.51944967 1872 80 0 1.00000000 1.00000000 1.00000000
H 4.76931662 14.58123462 7.84211968 1873 80 0 1.00000000 1.00000000 1.00000000
H 3.48703580 16.47189343 7.06227659 1874 80 0 1.00000000 1.00000000 1.00000000
H 2.83200886 16.73614379 8.67612479 1875 80 0 1.00000000 1.00000000 1.00000000
H 1.76778460 14.27970172 8.56151108 1876 80 0 1.00000000 1.00000000 1.00000000
H 2.58491778 14.18149381 7.10811785 1877 80 0 1.00000000 1.00000000 1.00000000
H 1.16480059 15.19400935 7.17426217 1878 80 0 1.00000000 1.00000000 1.00000000
C 34.84924848 43.93968174 20.36514589 1879 81 0 0.56500000 0.56500000 0.56500000
C 36.23071417 44.01881202 19.66119194 1880 81 0 0.56500000 0.56500000 0.56500000
C 36.59392458 45.47423577 19.45588877 1881 81 0 0.56500000 0.56500000 0.56500000
C 37.74475093 45.72699989 18.40382501 1882 81 0 0.56500000 0.56500000 0.56500000
C 39.13462313 45.11237839 18.88959235 1883 81 0 0.56500000 0.56500000 0.56500000
C 40.27678667 45.33701895 17.82253090 1884 81 0 0.56500000 0.56500000 0.56500000
C 41.59119487 44.78415028 18.37963879 1885 81 0 0.56500000 0.56500000 0.56500000
H 34.61202678 42.87132214 20.70330084 1886 81 0 1.00000000 1.00000000 1.00000000
H 33.99355953 44.25302105 19.85831727 1887 81 0 1.00000000 1.00000000 1.00000000
H 34.84921853 44.54352101 21.29847192 1888 81 0 1.00000000 1.00000000 1.00000000
H 36.27862485 43.46783642 18.71410774 1889 81 0 1.00000000 1.00000000 1.00000000
H 37.01388291 43.57721094 20.33141102 1890 81 0 1.00000000 1.00000000 1.00000000
H 36.86722876 45.96849256 20.40135092 1891 81 0 1.00000000 1.00000000 1.00000000
H 35.70340496 46.00517278 19.14467886 1892 81 0 1.00000000 1.00000000 1.00000000
H 37.95577577 46.82532985 18.29315519 1893 81 0 1.00000000 1.00000000 1.00000000
H 37.60173862 45.12897234 17.49591926 1894 81 0 1.00000000 1.00000000 1.00000000
H 38.99886356 44.04395518 19.11899112 1895 81 0 1.00000000 1.00000000 1.00000000
H 39.46032896 45.67190707 19.73255936 1896 81 0 1.00000000 1.00000000 1.00000000
H 40.31836470 46.39962465 17.65837377 1897 81 0 1.00000000 1.00000000 1.00000000
H 40.08155556 44.99540802 16.78632254 1898 81 0 1.00000000 1.00000000 1.00000000
H 41.81145125 45.15022647 19.31993956 1899 81 0 1.00000000 1.00000000 1.00000000
H 42.44115365 44.94524993 17.71348955 1900 81 0 1.00000000 1.00000000 1.00000000
H 41.51312673 43.62545955 18.59827152 1901 81 0 1.00000000 1.00000000 1.00000000
C 32.87412729 8.05598581 11.53833828 1902 82 0 0.56500000 0.56500000 0.56500000
C 32.35038456 8.96837048 10.43367504 1903 82 0 0.56500000 0.56500000 0.56500000
C 32.70538565 10.46630549 10.72222883 1904 82 0 0.56500000 0.56500000 0.56500000
C 31.92779956 11.05205753 11.95337829 1905 82 0 0.56500000 0.56500000 0.56500000
C 31.72660445 12.52574211 11.98429309 1906 82 0 0.56500000 0.56500000 0.56500000
C 30.84320204 12.85303964 13.25442201 1907 82 0 0.56500000 0.56500000 0.56500000
C 30.74146210 14.24327924 13.71110182 1908 82 0 0.56500000 0.56500000 0.56500000
H 32.58258563 8.18129900 12.64968009 1909 82 0 1.00000000 1.00000000 1.00000000
H 33.96596031 8.13174683 11.56511168 1910 82 0 1.00000000 1.00000000 1.00000000
H 32.66637446 7.06280188 11.20858639 1911 82 0 1.00000000 1.00000000 1.00000000
H 31.33237427 8.73609015 10.22212504 1912 82 0 1.00000000 1.00000000 1.00000000
H 32.97818830 8.65630897 9.60548521 1913 82 0 1.00000000 1.00000000 1.00000000
H 32.52924110 11.17354823 9.84357859 1914 82 0 1.00000000 1.00000000 1.00000000
H 33.76778215 10.54956931 10.98940171 1915 82 0 1.00000000 1.00000000 1.00000000
H 32.48593631 10.72229064 12.88294625 1916 82 0 1.00000000 1.00000000 1.00000000
H 30.95302265 10.59542599 11.93305822 1917 82 0 1.00000000 1.00000000 1.00000000
H 31.18928295 12.93116463 11.13774427 1918 82 0 1.00000000 1.00000000 1.00000000
H 32.69087939 13.01195871 12.03206742 1919 82 0 1.00000000 1.00000000 1.00000000
H 31.03228816 12.25757645 14.12821311 1920 82 0 1.00000000 1.00000000 1.00000000
H 29.90266003 12.37905299 12.96642392 1921 82 0 1.00000000 1.00000000 1.00000000
H 30.23656216 14.33763814 14.70504449 1922 82 0 1.00000000 1.00000000 1.00000000
H 30.36895618 15.08578911 13.10922216 1923 82 0 1.00000000 1.00000000 1.00000000
H 31.78664186 14.61647964 13.99539963 1924 82 0 1.00000000 1.00000000 1.00000000
C 37.83704621 31.28528177 23.40989547 1925 83 0 0.56500000 0.56500000 0.56500000
C 37.70528425 30.12397386 24.45710708 1926 83 0 0.56500000 0.56500000 0.56500000
C 36.57846891 29.17334638 24.14372682 1927 83 0 0.56500000 0.56500000 0.56500000
C 36.05853600 28.15055117 25.14988645 1928 83 0 0.56500000 0.56500000 0.56500000
C 34.88074778 27.37599888 24.60054353 1929 83 0 0.56500000 0.56500000 0.56500000
C 35.13580088 26.69238677 23.22831475 1930 83 0 0.56500000 0.56500000 0.56500000
C 34.00050306 25.70274046 22.93782716 1931 83 0 0.56500000 0.56500000 0.56500000
H 37.00910449 31.39260716 22.74667249 1932 83 0 1.00000000 1.00000000 1.00000000
H 38.74025024 31.04034212 22.90252542 1933 83 0 1.00000000 1.00000000 1.00000000
H 37.96750620 32.24578944 23.91259708 1934 83 0 1.00000000 1.00000000 1.00000000
H 37.49940108 30.60305514 25.45959852 1935 83 0 1.00000000 1.00000000 1.00000000
H 38.64451060 29.62686802 24.47468203 1936 83 0 1.00000000 1.00000000 1.00000000
H 36.96039574 28.51496542 23.33893197 1937 83 0 1.00000000 1.00000000 1.00000000
H 35.69990751 29.75225417 23.84768263 1938 83 0 1.00000000 1.00000000 1.00000000
H 35.92202564 28.53996766 26.15636350 1939 83 0 1.00000000 1.00000000 1.00000000
H 36.93846291 27.51352037 25.32546489 1940 83 0 1.00000000 1.00000000 1.00000000
H 34.00060327 27.96537042 24.48157895 1941 83 0 1.00000000 1.00000000 1.00000000
H 34.48707241 26.66530379 25.33879371 1942 83 0 1.00000000 1.00000000 1.00000000
H 36.07969186 26.20899890 23.20344036 1943 83 0 1.00000000 1.00000000 1.00000000
H 35.21764144 27.47022469 22.38061805 1944 83 0 1.00000000 1.00000000 1.00000000
H 33.00386640 26.12569386 23.00705147 1945 83 0 1.00000000 1.00000000 1.00000000
H 34.01049052 24.99189759 23.80210387 1946 83 0 1.00000000 1.00000000 1.00000000
H 34.10512664 25.01843562 22.05869675 1947 83 0 1.00000000 1.00000000 1.00000000
C 6.44288318 6.47864520 12.77282009 1948 84 0 0.56500000 0.56500000 0.56500000
C 7.37753216 7.04491475 11.72025895 1949 84 0 0.56500000 0.56500000 0.56500000
C 7.48328913 6.21062921 10.41696817 1950 84 0 0.56500000 0.56500000 0.56500000
C 8.12090411 7.11304595 9.37781885 1951 84 0 0.56500000 0.56500000 0.56500000
C 8.27304781 6.47286091 7.99310863 1952 84 0 0.56500000 0.56500000 0.56500000
C 9.09782176 7.35485327 6.98173013 1953 84 0 0.56500000 0.56500000 0.56500000
C 10.60027741 7.64430027 7.42133638 1954 84 0 0.56500000 0.56500000 0.56500000
H 6.60141979 5.46643403 12.98017410 1955 84 0 1.00000000 1.00000000 1.00000000
H 5.36877809 6.63256135 12.50706598 1956 84 0 1.00000000 1.00000000 1.00000000
H 6.57283378 6.99224333 13.71892935 1957 84 0 1.00000000 1.00000000 1.00000000
H 8.37908944 7.08484977 12.09262707 1958 84 0 1.00000000 1.00000000 1.00000000
H 7.02500969 8.03169725 11.48885821 1959 84 0 1.00000000 1.00000000 1.00000000
H 6.51962570 5.90916391 10.07593500 1960 84 0 1.00000000 1.00000000 1.00000000
H 8.01750275 5.26043238 10.69429498 1961 84 0 1.00000000 1.00000000 1.00000000
H 9.06291375 7.47169179 9.80768978 1962 84 0 1.00000000 1.00000000 1.00000000
H 7.49025322 8.00078199 9.21341214 1963 84 0 1.00000000 1.00000000 1.00000000
H 7.30333703 6.24096243 7.48528073 1964 84 0 1.00000000 1.00000000 1.00000000
H 8.75914067 5.52690047 8.06574108 1965 84 0 1.00000000 1.00000000 1.00000000
H 8.63409576 8.39325368 6.89454044 1966 84 0 1.00000000 1.00000000 1.00000000
H 9.07200304 6.90490731 5.93528248 1967 84 0 1.00000000 1.00000000 1.00000000
H 11.06956999 6.69815685 7.67371893 1968 84 0 1.00000000 1.00000000 1.00000000
H 10.60601590 8.45806382 8.17433483 1969 84 0 1.00000000 1.00000000 1.00000000
H 11.19291699 7.98311772 6.57188579 1970 84 0 1.00000000 1.00000000 1.00000000
C 47.29855579 25.38929543 24.41463203 1971 85 0 0.56500000 0.56500000 0.56500000
C 48.20996450 25.64808938 25.62952132 1972 85 0 0.56500000 0.56500000 0.56500000
C 47.63500669 26.40613624 26.80726962 1973 85 0 0.56500000 0.56500000 0.56500000
C 46.31670195 25.81121009 27.35187624 1974 85 0 0.56500000 0.56500000 0.56500000
C 45.64196611 26.70385957 28.34104760 1975 85 0 0.56500000 0.56500000 0.56500000
C 44.52963874 26.00500504 29.25425898 1976 85 0 0.56500000 0.56500000 0.56500000
C 43.44262289 25.33092789 28.36314252 1977 85 0 0.56500000 0.56500000 0.56500000
H 46.26077070 25.13477019 24.85671060 1978 85 0 1.00000000 1.00000000 1.00000000
H 47.65458417 24.49308936 23.85408021 1979 85 0 1.00000000 1.00000000 1.00000000
H 47.09075057 26.20192484 23.73142418 1980 85 0 1.00000000 1.00000000 1.00000000
H 49.17427043 26.11357262 25.37003279 1981 85 0 1.00000000 1.00000000 1.00000000
H 48.58537309 24.75808448 26.07745305 1982 85 0 1.00000000 1.00000000 1.00000000
H 47.38671597 27.44489031 26.63811854 1983 85 0 1.00000000 1.00000000 1.00000000
H 48.43102670 26.48001140 27.51634048 1984 85 0 1.00000000 1.00000000 1.00000000
H 46.41201501 24.84572911 27.83994976 1985 85 0 1.00000000 1.00000000 1.00000000
H 45.65891720 25.55780987 26.52304289 1986 85 0 1.00000000 1.00000000 1.00000000
H 45.09296333 27.43705348 27.88092460 1987 85 0 1.00000000 1.00000000 1.00000000
H 46.34243651 27.12883895 29.10373932 1988 85 0 1.00000000 1.00000000 1.00000000
H 44.05753599 26.79736007 29.95068955 1989 85 0 1.00000000 1.00000000 1.00000000
H 44.85382529 25.17700637 29.90902406 1990 85 0 1.00000000 1.00000000 1.00000000
H 42.64921615 24.90034674 28.94195797 1991 85 0 1.00000000 1.00000000 1.00000000
H 43.89983371 24.60017251 27.76347880 1992 85 0 1.00000000 1.00000000 1.00000000
H 43.05070012 26.15019310 27.71598339 1993 85 0 1.00000000 1.00000000 1.00000000
C 13.18125021 31.81561393 8.38509650 1994 86 0 0.56500000 0.56500000 0.56500000
C 11.79851448 31.07636918 8.29730972 1995 86 0 0.56500000 0.56500000 0.56500000
C 11.35800351 30.60630791 9.68464833 1996 86 0 0.56500000 0.56500000 0.56500000
C 10.47830512 29.39720228 9.67542017 1997 86 0 0.56500000 0.56500000 0.56500000
C 9.92100833 28.89866871 11.02341187 1998 86 0 0.56500000 0.56500000 0.56500000
C 9.10826560 29.99641413 11.72798048 1999 86 0 0.56500000 0.56500000 0.56500000
C 8.96768546 29.76256793 13.22281776 2000 86 0 0.56500000 0.56500000 0.56500000
H 13.51376285 31.94915243 7.33480617 2001 86 0 1.00000000 1.00000000 1.00000000
H 13.84848640 31.12406320 8.93523756 2002 86 0 1.00000000 1.00000000 1.00000000
H 13.11184704 32.65195806 8.96404679 2003 86 0 1.00000000 1.00000000 1.00000000
H 11.92583159 30.25145959 7.64044054 2004 86 0 1.00000000 1.00000000 1.00000000
H 11.02211932 31.77629863 7.94890226 2005 86 0 1.00000000 1.00000000 1.00000000
H 10.84434813 31.38131621 10.17442988 2006 86 0 1.00000000 1.00000000 1.00000000
H 12.11986119 30.39581697 10.46589043 2007 86 0 1.00000000 1.00000000 1.00000000
H 10.96630927 28.63708071 9.17542666 2008 86 0 1.00000000 1.00000000 1.00000000
H 9.54060166 29.63873696 9.09185005 2009 86 0 1.00000000 1.00000000 1.00000000
H 10.65872012 28.43915927 11.64585676 2010 86 0 1.00000000 1.00000000 1.00000000
H 9.14777976 28.11146492 10.92262320 2011 86 0 1.00000000 1.00000000 1.00000000
H 8.22809521 30.14090008 11.16278547 2012 86 0 1.00000000 1.00000000 1.00000000
H 9.62609047 30.92171656 11.48784869 2013 86 0 1.00000000 1.00000000 1.00000000
H 8.34207666 30.56833124 13.58633767 2014 86 0 1.00000000 1.00000000 1.00000000
H 9.95477802 29.94025438 13.59047379 2015 86 0 1.00000000 1.00000000 1.00000000
H 8.51812231 28.85691410 13.55762847 2016 86 0 1.00000000 1.00000000 1.00000000
C 19.50568482 7.43275067 20.94341656 2017 87 0 0.56500000 0.56500000 0.56500000
C 19.92880575 7.09406101 19.52831723 2018 87 0 0.56500000 0.56500000 0.56500000
C 21.01768068 6.07312159 19.35155180 2019 87 0 0.56500000 0.56500000 0.56500000
C 22.41505037 6.23122810 20.08232585 2020 87 0 0.56500000 0.56500000 0.56500000
C 23.44738931 5.17187417 19.59288172 2021 87 0 0.56500000 0.56500000 0.56500000
C 24.85670700 5.45314109 20.07885143 2022 87 0 0.56500000 0.56500000 0.56500000
C 25.22184882 5.31011867 21.59580805 2023 87 0 0.56500000 0.56500000 0.56500000
H 18.63592646 8.03150468 20.98541715 2024 87 0 1.00000000 1.00000000 1.00000000
H 20.24952220 8.13941886 21.37829247 2025 87 0 1.00000000 1.00000000 1.00000000
H 19.50523996 6.53822094 21.60353461 2026 87 0 1.00000000 1.00000000 1.00000000
H 20.08038436 7.99115831 18.95388379 2027 87 0 1.00000000 1.00000000 1.00000000
H 19.02805039 6.66918539 18.96282260 2028 87 0 1.00000000 1.00000000 1.00000000
H 21.28863435 6.10177734 18.26524110 2029 87 0 1.00000000 1.00000000 1.00000000
H 20.54913114 5.10436351 19.53840005 2030 87 0 1.00000000 1.00000000 1.00000000
H 22.32353080 6.31368628 21.18293160 2031 87 0 1.00000000 1.00000000 1.00000000
H 22.77117880 7.23058215 19.78485029 2032 87 0 1.00000000 1.00000000 1.00000000
H 23.40909401 5.07942463 18.52469750 2033 87 0 1.00000000 1.00000000 1.00000000
H 23.13939468 4.16313549 19.93524243 2034 87 0 1.00000000 1.00000000 1.00000000
H 25.12337457 6.42133873 19.65807721 2035 87 0 1.00000000 1.00000000 1.00000000
H 25.45015003 4.76786148 19.52644958 2036 87 0 1.00000000 1.00000000 1.00000000
H 24.50873792 5.77928673 22.26129109 2037 87 0 1.00000000 1.00000000 1.00000000
H 26.23228080 5.69049387 21.76636401 2038 87 0 1.00000000 1.00000000 1.00000000
H 25.32529821 4.23170382 21.93945524 2039 87 0 1.00000000 1.00000000 1.00000000
C 18.96770399 32.00495420 12.83343620 2040 88 0 0.56500000 0.56500000 0.56500000
C 19.64200430 32.32881426 14.09488283 2041 88 0 0.56500000 0.56500000 0.56500000
C 20.91090216 33.16991076 13.97526555 2042 88 0 0.56500000 0.56500000 0.56500000
C 21.99777356 32.67702554 13.00242801 2043 88 0 0.56500000 0.56500000 0.56500000
C 23.34940614 33.31812525 13.49846885 2044 88 0 0.56500000 0.56500000 0.56500000
C 24.50927649 33.21257567 12.53726679 2045 88 0 0.56500000 0.56500000 0.56500000
C 24.27622232 33.68803532 11.17531124 2046 88 0 0.56500000 0.56500000 0.56500000
H 18.53644656 32.76804944 12.19878295 2047 88 0 1.00000000 1.00000000 1.00000000
H 18.20319223 31.26890993 13.12517795 2048 88 0 1.00000000 1.00000000 1.00000000
H 19.65136281 31.43269357 12.25272738 2049 88 0 1.00000000 1.00000000 1.00000000
H 19.88152973 31.44432439 14.61486349 2050 88 0 1.00000000 1.00000000 1.00000000
H 18.97173493 32.81510713 14.81540677 2051 88 0 1.00000000 1.00000000 1.00000000
H 21.39385654 33.44020176 14.99124345 2052 88 0 1.00000000 1.00000000 1.00000000
H 20.62065650 34.16459505 13.46762004 2053 88 0 1.00000000 1.00000000 1.00000000
H 21.88095637 32.83842929 11.96500038 2054 88 0 1.00000000 1.00000000 1.00000000
H 22.05602155 31.52078685 13.08320409 2055 88 0 1.00000000 1.00000000 1.00000000
H 23.69311332 32.78064401 14.41787606 2056 88 0 1.00000000 1.00000000 1.00000000
H 23.12126283 34.33417917 13.80302723 2057 88 0 1.00000000 1.00000000 1.00000000
H 24.79497464 32.12657347 12.43081662 2058 88 0 1.00000000 1.00000000 1.00000000
H 25.32831421 33.73742053 13.04009374 2059 88 0 1.00000000 1.00000000 1.00000000
H 23.92518363 34.65007688 11.14252069 2060 88 0 1.00000000 1.00000000 1.00000000
H 23.54269218 33.09702399 10.65672884 2061 88 0 1.00000000 1.00000000 1.00000000
H 25.20229883 33.65636143 10.55019833 2062 88 0 1.00000000 1.00000000 1.00000000
C 39.21572405 27.89153256 21.02290672 2063 89 0 0.56500000 0.56500000 0.56500000
C 38.95618555 28.60275439 19.67886774 2064 89 0 0.56500000 0.56500000 0.56500000
C 38.66296320 27.65684521 18.52713866 2065 89 0 0.56500000 0.56500000 0.56500000
C 39.79296481 26.79634610 17.97931928 2066 89 0 0.56500000 0.56500000 0.56500000
C 39.20311022 25.60741751 17.27074829 2067 89 0 0.56500000 0.56500000 0.56500000
C 40.24165503 24.65211525 16.61665413 2068 89 0 0.56500000 0.56500000 0.56500000
C 41.00954485 23.81178662 17.63275432 2069 89 0 0.56500000 0.56500000 0.56500000
H 38.54372523 27.04924959 21.32070532 2070 89 0 1.00000000 1.00000000 1.00000000
H 39.16079250 28.63018711 21.85808243 2071 89 0 1.00000000 1.00000000 1.00000000
H 40.20380766 27.46248138 20.85687951 2072 89 0 1.00000000 1.00000000 1.00000000
H 39.87096062 29.18447884 19.44152971 2073 89 0 1.00000000 1.00000000 1.00000000
H 38.15271852 29.25966500 19.71812626 2074 89 0 1.00000000 1.00000000 1.00000000
H 38.27630275 28.18777868 17.61588868 2075 89 0 1.00000000 1.00000000 1.00000000
H 37.87180631 26.99889433 18.80965655 2076 89 0 1.00000000 1.00000000 1.00000000
H 40.56535494 26.45414969 18.72828304 2077 89 0 1.00000000 1.00000000 1.00000000
H 40.29050809 27.35452489 17.19526379 2078 89 0 1.00000000 1.00000000 1.00000000
H 38.40093920 25.89759952 16.56888307 2079 89 0 1.00000000 1.00000000 1.00000000
H 38.60483751 25.05279212 18.04612085 2080 89 0 1.00000000 1.00000000 1.00000000
H 41.01445013 25.25356285 16.10280099 2081 89 0 1.00000000 1.00000000 1.00000000
H 39.87588820 23.97511591 15.75074805 2082 89 0 1.00000000 1.00000000 1.00000000
H 40.44119544 22.97505095 18.10285909 2083 89 0 1.00000000 1.00000000 1.00000000
H 41.32687595 24.48305066 18.44519947 2084 89 0 1.00000000 1.00000000 1.00000000
H 41.92100016 23.34968990 17.30050260 2085 89 0 1.00000000 1.00000000 1.00000000
C 33.31346861 20.79993261 -0.96876473 2086 90 0 0.56500000 0.56500000 0.56500000
C 32.25845364 19.68420274 -0.69378374 2087 90 0 0.56500000 0.56500000 0.56500000
C 31.66338920 19.02377232 -1.99755191 2088 90 0 0.56500000 0.56500000 0.56500000
C 30.84636177 20.04803782 -2.80130094 2089 90 0 0.56500000 0.56500000 0.56500000
C 30.30377133 19.55568576 -4.12201565 2090 90 0 0.56500000 0.56500000 0.56500000
C 29.74179762 20.71788347 -4.97024699 2091 90 0 0.56500000 0.56500000 0.56500000
C 29.55379039 20.14797789 -6.36310571 2092 90 0 0.56500000 0.56500000 0.56500000
H 33.62980934 21.22059339 0.00576239 2093 90 0 1.00000000 1.00000000 1.00000000
H 33.01601676 21.57464421 -1.69447758 2094 90 0 1.00000000 1.00000000 1.00000000
H 34.18374714 20.33592948 -1.44168372 2095 90 0 1.00000000 1.00000000 1.00000000
H 31.39409561 20.02124481 -0.17592131 2096 90 0 1.00000000 1.00000000 1.00000000
H 32.81234562 18.96011341 -0.14848123 2097 90 0 1.00000000 1.00000000 1.00000000
H 31.13986043 18.13277948 -1.75701041 2098 90 0 1.00000000 1.00000000 1.00000000
H 32.58498205 18.75530835 -2.54479363 2099 90 0 1.00000000 1.00000000 1.00000000
H 31.51686058 20.88012212 -3.04010228 2100 90 0 1.00000000 1.00000000 1.00000000
H 30.06193892 20.51133489 -2.33826957 2101 90 0 1.00000000 1.00000000 1.00000000
H 29.52709435 18.75779677 -4.07210619 2102 90 0 1.00000000 1.00000000 1.00000000
H 31.14606245 19.11776841 -4.70472303 2103 90 0 1.00000000 1.00000000 1.00000000
H 30.40371446 21.57782402 -4.84072104 2104 90 0 1.00000000 1.00000000 1.00000000
H 28.79014595 20.99447181 -4.36200297 2105 90 0 1.00000000 1.00000000 1.00000000
H 29.47685221 20.86905703 -7.20161910 2106 90 0 1.00000000 1.00000000 1.00000000
H 28.59257573 19.52024785 -6.25543903 2107 90 0 1.00000000 1.00000000 1.00000000
H 30.42735011 19.54099813 -6.68985358 2108 90 0 1.00000000 1.00000000 1.00000000
C 22.34950389 5.79084399 39.65278387 2109 91 0 0.56500000 0.56500000 0.56500000
C 21.25791836 6.87673427 39.68166225 2110 91 0 0.56500000 0.56500000 0.56500000
C 21.90779776 8.31880086 39.78642745 2111 91 0 0.56500000 0.56500000 0.56500000
C 20.89310161 9.39327854 40.07077794 2112 91 0 0.56500000 0.56500000 0.56500000
C 21.37775362 10.74167548 40.61590132 2113 91 0 0.56500000 0.56500000 0.56500000
C 20.44737416 11.96751874 40.46405160 2114 91 0 0.56500000 0.56500000 0.56500000
C 20.50295194 12.66889261 39.01943778 2115 91 0 0.56500000 0.56500000 0.56500000
H 22.85633893 5.94643288 38.69921173 2116 91 0 1.00000000 1.00000000 1.00000000
H 22.07378120 4.75595087 39.81697259 2117 91 0 1.00000000 1.00000000 1.00000000
H 23.03300609 5.89882092 40.47888889 2118 91 0 1.00000000 1.00000000 1.00000000
H 20.55975203 6.75451427 40.48676243 2119 91 0 1.00000000 1.00000000 1.00000000
H 20.70964446 6.77724724 38.73691289 2120 91 0 1.00000000 1.00000000 1.00000000
H 22.40809287 8.43706814 38.86336428 2121 91 0 1.00000000 1.00000000 1.00000000
H 22.65723172 8.39818746 40.64190122 2122 91 0 1.00000000 1.00000000 1.00000000
H 20.13666364 9.00615454 40.72874465 2123 91 0 1.00000000 1.00000000 1.00000000
H 20.34548980 9.61928973 39.14088557 2124 91 0 1.00000000 1.00000000 1.00000000
H 22.29109206 11.00551825 39.99642676 2125 91 0 1.00000000 1.00000000 1.00000000
H 21.84842602 10.65388391 41.60234554 2126 91 0 1.00000000 1.00000000 1.00000000
H 20.88915117 12.62164031 41.25378480 2127 91 0 1.00000000 1.00000000 1.00000000
H 19.42374484 11.78951314 40.75334374 2128 91 0 1.00000000 1.00000000 1.00000000
H 20.13040771 12.16069003 38.09734445 2129 91 0 1.00000000 1.00000000 1.00000000
H 21.49711115 12.95090017 38.89378528 2130 91 0 1.00000000 1.00000000 1.00000000
H 19.91796540 13.61359834 38.91876848 2131 91 0 1.00000000 1.00000000 1.00000000
C 14.74275153 25.18744259 19.41808381 2132 92 0 0.56500000 0.56500000 0.56500000
C 14.62919478 25.26703186 20.93015748 2133 92 0 0.56500000 0.56500000 0.56500000
C 13.17608581 25.15567680 21.32829523 2134 92 0 0.56500000 0.56500000 0.56500000
C 12.96043429 25.07059427 22.84722389 2135 92 0 0.56500000 0.56500000 0.56500000
C 11.53944723 25.09887504 23.28657401 2136 92 0 0.56500000 0.56500000 0.56500000
C 11.32110590 25.01707548 24.75002670 2137 92 0 0.56500000 0.56500000 0.56500000
C 10.00277481 25.67457688 25.18095340 2138 92 0 0.56500000 0.56500000 0.56500000
H 14.34340524 26.14007189 19.26041295 2139 92 0 1.00000000 1.00000000 1.00000000
H 14.06974088 24.43137400 18.99939193 2140 92 0 1.00000000 1.00000000 1.00000000
H 15.73768428 25.05778706 18.99797544 2141 92 0 1.00000000 1.00000000 1.00000000
H 14.98952330 26.26322579 21.22940934 2142 92 0 1.00000000 1.00000000 1.00000000
H 15.18759094 24.47823914 21.46684341 2143 92 0 1.00000000 1.00000000 1.00000000
H 12.67670687 24.26102777 20.76939689 2144 92 0 1.00000000 1.00000000 1.00000000
H 12.69120728 26.07853389 20.93207113 2145 92 0 1.00000000 1.00000000 1.00000000
H 13.33682774 25.96655745 23.31409124 2146 92 0 1.00000000 1.00000000 1.00000000
H 13.44045381 24.22218890 23.33678731 2147 92 0 1.00000000 1.00000000 1.00000000
H 10.97747016 24.24456005 22.89843767 2148 92 0 1.00000000 1.00000000 1.00000000
H 11.05981353 26.02770579 23.01226913 2149 92 0 1.00000000 1.00000000 1.00000000
H 12.18690779 25.62415304 25.24910694 2150 92 0 1.00000000 1.00000000 1.00000000
H 11.35708070 24.00024326 25.12268490 2151 92 0 1.00000000 1.00000000 1.00000000
H 9.16335140 25.22874634 24.66401808 2152 92 0 1.00000000 1.00000000 1.00000000
H 9.94492722 26.73918881 24.89398342 2153 92 0 1.00000000 1.00000000 1.00000000
H 9.80385860 25.57675423 26.22557064 2154 92 0 1.00000000 1.00000000 1.00000000
C 20.98667422 42.10253800 31.93579102 2155 93 0 0.56500000 0.56500000 0.56500000
C 19.74782800 42.65185609 31.28434212 2156 93 0 0.56500000 0.56500000 0.56500000
C 18.72281851 43.30878286 32.26698366 2157 93 0 0.56500000 0.56500000 0.56500000
C 17.31602100 43.71384446 31.71426580 2158 93 0 0.56500000 0.56500000 0.56500000
C 16.34115871 44.13029726 32.82174232 2159 93 0 0.56500000 0.56500000 0.56500000
C 14.90406087 44.51155386 32.36977815 2160 93 0 0.56500000 0.56500000 0.56500000
C 14.92524584 45.42129240 31.20039097 2161 93 0 0.56500000 0.56500000 0.56500000
H 21.67463177 42.95548453 32.11685892 2162 93 0 1.00000000 1.00000000 1.00000000
H 21.38738757 41.26349634 31.27899710 2163 93 0 1.00000000 1.00000000 1.00000000
H 20.71680661 41.55478612 32.85886529 2164 93 0 1.00000000 1.00000000 1.00000000
H 19.31414323 41.90996798 30.51281714 2165 93 0 1.00000000 1.00000000 1.00000000
H 20.12477972 43.37408940 30.52329587 2166 93 0 1.00000000 1.00000000 1.00000000
H 19.18180379 44.16408450 32.70405006 2167 93 0 1.00000000 1.00000000 1.00000000
H 18.63623295 42.46877596 32.97306405 2168 93 0 1.00000000 1.00000000 1.00000000
H 16.88790508 42.87737039 31.11765701 2169 93 0 1.00000000 1.00000000 1.00000000
H 17.34942390 44.49476514 30.95624670 2170 93 0 1.00000000 1.00000000 1.00000000
H 16.68069981 45.02164854 33.26126454 2171 93 0 1.00000000 1.00000000 1.00000000
H 16.26640164 43.40282064 33.62411694 2172 93 0 1.00000000 1.00000000 1.00000000
H 14.40450317 44.97871766 33.29800462 2173 93 0 1.00000000 1.00000000 1.00000000
H 14.33103529 43.63181379 32.21688031 2174 93 0 1.00000000 1.00000000 1.00000000
H 15.40621600 44.87212868 30.37469615 2175 93 0 1.00000000 1.00000000 1.00000000
H 15.53615827 46.31768508 31.47347315 2176 93 0 1.00000000 1.00000000 1.00000000
H 13.93154609 45.73400991 30.82854845 2177 93 0 1.00000000 1.00000000 1.00000000
C 22.37508349 33.24038112 24.91475138 2178 94 0 0.56500000 0.56500000 0.56500000
C 21.30796243 33.36713857 26.01194051 2179 94 0 0.56500000 0.56500000 0.56500000
C 20.02006868 33.96919583 25.48434083 2180 94 0 0.56500000 0.56500000 0.56500000
C 20.16745407 35.50630164 25.50830619 2181 94 0 0.56500000 0.56500000 0.56500000
C 19.83569893 36.14271263 26.87924088 2182 94 0 0.56500000 0.56500000 0.56500000
C 20.09588088 37.64606050 26.98651597 2183 94 0 0.56500000 0.56500000 0.56500000
C 19.83513861 38.07631620 28.43039136 2184 94 0 0.56500000 0.56500000 0.56500000
H 23.33412896 32.73096990 25.08142106 2185 94 0 1.00000000 1.00000000 1.00000000
H 22.55682486 34.23422703 24.49689806 2186 94 0 1.00000000 1.00000000 1.00000000
H 21.79429507 32.73048043 24.16554518 2187 94 0 1.00000000 1.00000000 1.00000000
H 21.57925363 34.09891467 26.69546577 2188 94 0 1.00000000 1.00000000 1.00000000
H 21.29622333 32.43175228 26.62112140 2189 94 0 1.00000000 1.00000000 1.00000000
H 19.13214047 33.63066559 26.14137767 2190 94 0 1.00000000 1.00000000 1.00000000
H 19.80043187 33.59764375 24.46986734 2191 94 0 1.00000000 1.00000000 1.00000000
H 19.46486540 36.02129202 24.77726359 2192 94 0 1.00000000 1.00000000 1.00000000
H 21.17848694 35.81700378 25.23212968 2193 94 0 1.00000000 1.00000000 1.00000000
H 20.51951881 35.72120138 27.63111193 2194 94 0 1.00000000 1.00000000 1.00000000
H 18.81104932 35.90888531 27.15066017 2195 94 0 1.00000000 1.00000000 1.00000000
H 19.36241352 38.13516863 26.33999084 2196 94 0 1.00000000 1.00000000 1.00000000
H 21.11310039 38.07289429 26.71060757 2197 94 0 1.00000000 1.00000000 1.00000000
H 20.07327166 39.17111813 28.55079689 2198 94 0 1.00000000 1.00000000 1.00000000
H 20.56396476 37.68904504 29.11819367 2199 94 0 1.00000000 1.00000000 1.00000000
H 18.82802815 37.75984051 28.78198715 2200 94 0 1.00000000 1.00000000 1.00000000
C 17.58972400 33.10412041 38.23563970 2201 95 0 0.56500000 0.56500000 0.56500000
C 18.03480874 33.05072620 36.80831373 2202 95 0 0.56500000 0.56500000 0.56500000
C 19.41969421 32.42329794 36.57348162 2203 95 0 0.56500000 0.56500000 0.56500000
C 19.61662077 32.33430912 35.05778904 2204 95 0 0.56500000 0.56500000 0.56500000
C 19.22246847 33.68712795 34.40100210 2205 95 0 0.56500000 0.56500000 0.56500000
C 19.61402085 33.84548492 32.92931556 2206 95 0 0.56500000 0.56500000 0.56500000
C 18.80680855 34.96642679 32.30333986 2207 95 0 0.56500000 0.56500000 0.56500000
H 18.43657823 33.50684032 38.76689135 2208 95 0 1.00000000 1.00000000 1.00000000
H 17.30993274 32.12268666 38.59557034 2209 95 0 1.00000000 1.00000000 1.00000000
H 16.79381861 33.79209599 38.34868633 2210 95 0 1.00000000 1.00000000 1.00000000
H 17.87431654 34.03549237 36.40621166 2211 95 0 1.00000000 1.00000000 1.00000000
H 17.30708091 32.38823343 36.25292239 2212 95 0 1.00000000 1.00000000 1.00000000
H 19.39794259 31.41352044 36.93537534 2213 95 0 1.00000000 1.00000000 1.00000000
H 20.18856598 33.02867274 37.15218708 2214 95 0 1.00000000 1.00000000 1.00000000
H 18.98809610 31.54452429 34.75090367 2215 95 0 1.00000000 1.00000000 1.00000000
H 20.59460972 32.07554118 34.80019078 2216 95 0 1.00000000 1.00000000 1.00000000
H 19.71591647 34.48558144 35.00926666 2217 95 0 1.00000000 1.00000000 1.00000000
H 18.12741678 33.82302144 34.40322550 2218 95 0 1.00000000 1.00000000 1.00000000
H 19.42645211 32.91230460 32.38288282 2219 95 0 1.00000000 1.00000000 1.00000000
H 20.74057783 34.03661483 32.86831050 2220 95 0 1.00000000 1.00000000 1.00000000
H 18.89462664 35.79663780 33.00715648 2221 95 0 1.00000000 1.00000000 1.00000000
H 17.77473281 34.70767400 32.21951510 2222 95 0 1.00000000 1.00000000 1.00000000
H 19.12683220 35.32973712 31.30139295 2223 95 0 1.00000000 1.00000000 1.00000000
C 40.70513051 4.73983524 32.96710328 2224 96 0 0.56500000 0.56500000 0.56500000
C 41.84996812 5.62890572 32.49486603 2225 96 0 0.56500000 0.56500000 0.56500000
C 41.86425073 5.99874016 31.09582349 2226 96 0 0.56500000 0.56500000 0.56500000
C 40.83038961 6.92891812 30.53927322 2227 96 0 0.56500000 0.56500000 0.56500000
C 40.93271162 7.24378890 28.95413032 2228 96 0 0.56500000 0.56500000 0.56500000
C 39.75899331 8.05898418 28.39686096 2229 96 0 0.56500000 0.56500000 0.56500000
C 40.23204384 8.71963420 27.05626193 2230 96 0 0.56500000 0.56500000 0.56500000
H 40.54309014 4.71856050 34.05921998 2231 96 0 1.00000000 1.00000000 1.00000000
H 40.86008660 3.70037761 32.58397950 2232 96 0 1.00000000 1.00000000 1.00000000
H 39.77179093 5.01163181 32.45366464 2233 96 0 1.00000000 1.00000000 1.00000000
H 42.75629383 5.01692703 32.68201630 2234 96 0 1.00000000 1.00000000 1.00000000
H 41.83225234 6.50477004 33.19925981 2235 96 0 1.00000000 1.00000000 1.00000000
H 41.86591643 5.05907164 30.36044041 2236 96 0 1.00000000 1.00000000 1.00000000
H 42.78998930 6.46651836 30.84856588 2237 96 0 1.00000000 1.00000000 1.00000000
H 40.69379800 7.89094613 31.06049700 2238 96 0 1.00000000 1.00000000 1.00000000
H 39.79156355 6.46891309 30.70569809 2239 96 0 1.00000000 1.00000000 1.00000000
H 41.29538479 6.34856136 28.39367570 2240 96 0 1.00000000 1.00000000 1.00000000
H 41.68691948 7.98178847 28.95071062 2241 96 0 1.00000000 1.00000000 1.00000000
H 39.47842025 8.82969292 29.20810164 2242 96 0 1.00000000 1.00000000 1.00000000
H 38.92855676 7.51256629 28.14158687 2243 96 0 1.00000000 1.00000000 1.00000000
H 40.47920182 7.95858336 26.29346742 2244 96 0 1.00000000 1.00000000 1.00000000
H 41.16016039 9.24387320 27.25500975 2245 96 0 1.00000000 1.00000000 1.00000000
H 39.48600016 9.37482581 26.63144739 2246 96 0 1.00000000 1.00000000 1.00000000
C 24.31562860 24.76657150 18.85966356 2247 97 0 0.56500000 0.56500000 0.56500000
C 25.51463986 25.25007795 18.07423034 2248 97 0 0.56500000 0.56500000 0.56500000
C 25.98601140 26.63236924 18.43133893 2249 97 0 0.56500000 0.56500000 0.56500000
C 24.96893497 27.80703145 18.20233150 2250 97 0 0.56500000 0.56500000 0.56500000
C 25.04834267 28.21511668 16.77850713 2251 97 0 0.56500000 0.56500000 0.56500000
C 23.92748531 29.25859701 16.45694980 2252 97 0 0.56500000 0.56500000 0.56500000
C 23.98593228 29.86361032 15.06004231 2253 97 0 0.56500000 0.56500000 0.56500000
H 24.56273971 24.47350285 19.95771882 2254 97 0 1.00000000 1.00000000 1.00000000
H 23.91156577 23.86723435 18.43439355 2255 97 0 1.00000000 1.00000000 1.00000000
H 23.57047538 25.53620828 18.93381755 2256 97 0 1.00000000 1.00000000 1.00000000
H 25.29130418 25.15688257 16.97078520 2257 97 0 1.00000000 1.00000000 1.00000000
H 26.34583330 24.48425353 17.98141307 2258 97 0 1.00000000 1.00000000 1.00000000
H 26.83719999 26.94952441 17.85012775 2259 97 0 1.00000000 1.00000000 1.00000000
H 26.33664042 26.56305519 19.43185157 2260 97 0 1.00000000 1.00000000 1.00000000
H 25.30925747 28.59059643 18.92090668 2261 97 0 1.00000000 1.00000000 1.00000000
H 23.89837886 27.70565067 18.41201722 2262 97 0 1.00000000 1.00000000 1.00000000
H 24.88302217 27.34294727 16.17465373 2263 97 0 1.00000000 1.00000000 1.00000000
H 25.93827609 28.69738572 16.44029142 2264 97 0 1.00000000 1.00000000 1.00000000
H 24.06778730 30.00015128 17.17284258 2265 97 0 1.00000000 1.00000000 1.00000000
H 22.99428885 28.71955127 16.64972311 2266 97 0 1.00000000 1.00000000 1.00000000
H 25.03295673 29.98741729 14.70142241 2267 97 0 1.00000000 1.00000000 1.00000000
H 23.56329372 30.84865185 15.04836177 2268 97 0 1.00000000 1.00000000 1.00000000
H 23.42576503 29.14458919 14.34035901 2269 97 0 1.00000000 1.00000000 1.00000000
C 19.15788829 29.11850622 4.79613877 2270 98 0 0.56500000 0.56500000 0.56500000
C 18.89680342 27.60213973 5.03858706 2271 98 0 0.56500000 0.56500000 0.56500000
C 19.97873677 26.71139570 4.50012181 2272 98 0 0.56500000 0.56500000 0.56500000
C 19.68873594 25.90307708 3.20166495 2273 98 0 0.56500000 0.56500000 0.56500000
C 20.93118983 24.95045293 2.88701541 2274 98 0 0.56500000 0.56500000 0.56500000
C 20.70720097 24.03465596 1.63870989 2275 98 0 0.56500000 0.56500000 0.56500000
C 21.93571682 23.15864636 1.37957525 2276 98 0 0.56500000 0.56500000 0.56500000
H 20.03561549 29.48499760 5.22465080 2277 98 0 1.00000000 1.00000000 1.00000000
H 18.32167249 29.77159957 5.02740110 2278 98 0 1.00000000 1.00000000 1.00000000
H 19.29675327 29.12625546 3.68793085 2279 98 0 1.00000000 1.00000000 1.00000000
H 17.89084262 27.35123502 4.54972614 2280 98 0 1.00000000 1.00000000 1.00000000
H 18.71753918 27.31396723 6.06466432 2281 98 0 1.00000000 1.00000000 1.00000000
H 20.38263574 26.03797245 5.19053321 2282 98 0 1.00000000 1.00000000 1.00000000
H 20.89112806 27.22024605 4.19105155 2283 98 0 1.00000000 1.00000000 1.00000000
H 19.45125299 26.57616437 2.31091493 2284 98 0 1.00000000 1.00000000 1.00000000
H 18.78537168 25.27995457 3.31533828 2285 98 0 1.00000000 1.00000000 1.00000000
H 21.08479680 24.26271802 3.70818653 2286 98 0 1.00000000 1.00000000 1.00000000
H 21.81742278 25.61323836 2.77229645 2287 98 0 1.00000000 1.00000000 1.00000000
H 20.55680300 24.53155858 0.68259224 2288 98 0 1.00000000 1.00000000 1.00000000
H 19.88406019 23.37653351 1.91922193 2289 98 0 1.00000000 1.00000000 1.00000000
H 21.96476015 22.30983987 2.09747161 2290 98 0 1.00000000 1.00000000 1.00000000
H 22.85728200 23.79426670 1.61054305 2291 98 0 1.00000000 1.00000000 1.00000000
H 21.98621797 22.68627889 0.41673900 2292 98 0 1.00000000 1.00000000 1.00000000
C 10.62976242 32.63632631 31.72337348 2293 99 0 0.56500000 0.56500000 0.56500000
C 9.76313828 32.04007626 30.65841067 2294 99 0 0.56500000 0.56500000 0.56500000
C 9.99725482 32.33291476 29.19981423 2295 99 0 0.56500000 0.56500000 0.56500000
C 9.17133657 31.54579387 28.27836424 2296 99 0 0.56500000 0.56500000 0.56500000
C 9.44368619 31.70655893 26.80956746 2297 99 0 0.56500000 0.56500000 0.56500000
C 8.63857064 30.54674330 25.97193271 2298 99 0 0.56500000 0.56500000 0.56500000
C 8.71855933 30.54555942 24.42017751 2299 99 0 0.56500000 0.56500000 0.56500000
H 10.22984805 32.30053706 32.64410706 2300 99 0 1.00000000 1.00000000 1.00000000
H 10.59991522 33.74287973 31.77619178 2301 99 0 1.00000000 1.00000000 1.00000000
H 11.65162984 32.31039894 31.61783405 2302 99 0 1.00000000 1.00000000 1.00000000
H 8.70092026 32.31798354 30.83564880 2303 99 0 1.00000000 1.00000000 1.00000000
H 9.85357658 30.94258934 30.65166704 2304 99 0 1.00000000 1.00000000 1.00000000
H 11.03363505 32.11891919 28.96761407 2305 99 0 1.00000000 1.00000000 1.00000000
H 9.87913927 33.42962441 29.08418208 2306 99 0 1.00000000 1.00000000 1.00000000
H 8.13987977 31.81972096 28.42835587 2307 99 0 1.00000000 1.00000000 1.00000000
H 9.28321478 30.51002412 28.55025043 2308 99 0 1.00000000 1.00000000 1.00000000
H 10.51135186 31.65864965 26.57724914 2309 99 0 1.00000000 1.00000000 1.00000000
H 9.02703567 32.68525936 26.59521210 2310 99 0 1.00000000 1.00000000 1.00000000
H 7.57000022 30.72312769 26.24500776 2311 99 0 1.00000000 1.00000000 1.00000000
H 8.80017640 29.60723911 26.41020772 2312 99 0 1.00000000 1.00000000 1.00000000
H 9.03782796 31.52871715 23.98919410 2313 99 0 1.00000000 1.00000000 1.00000000
H 7.68985099 30.26889742 23.94548151 2314 99 0 1.00000000 1.00000000 1.00000000
H 9.53416525 29.88188217 24.06605440 2315 99 0 1.00000000 1.00000000 1.00000000
C 0.89608249 39.25718455 12.45900200 2316 100 0 0.56500000 0.56500000 0.56500000
C -0.31263239 38.67207745 13.23802927 2317 100 0 0.56500000 0.56500000 0.56500000
C 0.12680903 37.92144420 14.44102159 2318 100 0 0.56500000 0.56500000 0.56500000
C 0.90672477 36.62984440 14.21012092 2319 100 0 0.56500000 0.56500000 0.56500000
C 0.09429694 35.64771340 13.37971185 2320 100 0 0.56500000 0.56500000 0.56500000
C 0.73134506 34.26720280 13.27262247 2321 100 0 0.56500000 0.56500000 0.56500000
C 0.84812063 33.55630072 14.61766979 2322 100 0 0.56500000 0.56500000 0.56500000
H 0.55966327 39.73371708 11.52924355 2323 100 0 1.00000000 1.00000000 1.00000000
H 1.50868204 38.43347742 12.03326359 2324 100 0 1.00000000 1.00000000 1.00000000
H 1.51013438 39.94576279 12.99807677 2325 100 0 1.00000000 1.00000000 1.00000000
H -0.95628108 37.99578240 12.60981417 2326 100 0 1.00000000 1.00000000 1.00000000
H -0.88756532 39.50841967 13.51496079 2327 100 0 1.00000000 1.00000000 1.00000000
H -0.70523708 37.58966039 15.08271049 2328 100 0 1.00000000 1.00000000 1.00000000
H 0.77520282 38.55206837 15.08874236 2329 100 0 1.00000000 1.00000000 1.00000000
H 1.10000837 36.10645224 15.16801903 2330 100 0 1.00000000 1.00000000 1.00000000
H 1.88445360 36.80911089 13.74999229 2331 100 0 1.00000000 1.00000000 1.00000000
H -0.13904039 36.08437211 12.41248664 2332 100 0 1.00000000 1.00000000 1.00000000
H -0.92727374 35.65779600 13.77298487 2333 100 0 1.00000000 1.00000000 1.00000000
H 1.77467913 34.47190055 12.94047902 2334 100 0 1.00000000 1.00000000 1.00000000
H 0.25718514 33.55002344 12.56080147 2335 100 0 1.00000000 1.00000000 1.00000000
H 1.72557322 33.98978592 15.11234993 2336 100 0 1.00000000 1.00000000 1.00000000
H 1.05985730 32.49732404 14.48415441 2337 100 0 1.00000000 1.00000000 1.00000000
H -0.02802688 33.69034078 15.28357306 2338 100 0 1.00000000 1.00000000 1.00000000
C 7.94360459 45.17679833 11.89565417 2339 101 0 0.56500000 0.56500000 0.56500000
C 7.35861321 43.76345482 12.10962248 2340 101 0 0.56500000 0.56500000 0.56500000
C 7.02755686 43.04749563 10.78348585 2341 101 0 0.56500000 0.56500000 0.56500000
C 6.30515447 41.71671471 10.97469006 2342 101 0 0.56500000 0.56500000 0.56500000
C 5.95316587 41.10303238 9.56909199 2343 101 0 0.56500000 0.56500000 0.56500000
C 4.67850950 40.28883933 9.48368429 2344 101 0 0.56500000 0.56500000 0.56500000
C 4.83398262 38.87390931 10.17125443 2345 101 0 0.56500000 0.56500000 0.56500000
H 8.47639289 45.05031345 10.93959176 2346 101 0 1.00000000 1.00000000 1.00000000
H 8.49012555 45.57604650 12.82634352 2347 101 0 1.00000000 1.00000000 1.00000000
H 7.05864420 45.79899509 11.72896561 2348 101 0 1.00000000 1.00000000 1.00000000
H 6.45447768 43.86509597 12.69851385 2349 101 0 1.00000000 1.00000000 1.00000000
H 8.06850978 43.08557462 12.59732634 2350 101 0 1.00000000 1.00000000 1.00000000
H 7.98281060 42.98309958 10.29759874 2351 101 0 1.00000000 1.00000000 1.00000000
H 6.35736865 43.70833730 10.14198801 2352 101 0 1.00000000 1.00000000 1.00000000
H 5.31672177 41.89150251 11.39258668 2353 101 0 1.00000000 1.00000000 1.00000000
H 6.91550474 40.98577769 11.51290561 2354 101 0 1.00000000 1.00000000 1.00000000
H 6.85736324 40.45937636 9.16958268 2355 101 0 1.00000000 1.00000000 1.00000000
H 5.79489025 41.93832551 8.78793102 2356 101 0 1.00000000 1.00000000 1.00000000
H 4.50403203 40.16024361 8.45393439 2357 101 0 1.00000000 1.00000000 1.00000000
H 3.86290248 40.89126953 10.00252479 2358 101 0 1.00000000 1.00000000 1.00000000
H 5.45579149 38.89578029 11.10309941 2359 101 0 1.00000000 1.00000000 1.00000000
H 5.23622379 38.04378396 9.56578340 2360 101 0 1.00000000 1.00000000 1.00000000
H 3.88133711 38.53029581 10.56796375 2361 101 0 1.00000000 1.00000000 1.00000000
C 35.11172158 23.96280036 -4.49999946 2362 102 0 0.56500000 0.56500000 0.56500000
C 34.29559870 23.96231141 -5.75838346 2363 102 0 0.56500000 0.56500000 0.56500000
C 34.80588348 23.12768960 -6.93012649 2364 102 0 0.56500000 0.56500000 0.56500000
C 34.93273920 21.69034961 -6.61224978 2365 102 0 0.56500000 0.56500000 0.56500000
C 35.55014487 20.85793125 -7.79068546 2366 102 0 0.56500000 0.56500000 0.56500000
C 35.21011862 19.37411812 -7.86789396 2367 102 0 0.56500000 0.56500000 0.56500000
C 35.76951653 18.45184183 -9.00559862 2368 102 0 0.56500000 0.56500000 0.56500000
H 34.52869087 24.43132885 -3.68652397 2369 102 0 1.00000000 1.00000000 1.00000000
H 36.06318640 24.51793127 -4.63595150 2370 102 0 1.00000000 1.00000000 1.00000000
H 35.30451949 22.98906202 -4.15098252 2371 102 0 1.00000000 1.00000000 1.00000000
H 34.20913112 25.05737399 -6.11439831 2372 102 0 1.00000000 1.00000000 1.00000000
H 33.22965555 23.62238079 -5.49687655 2373 102 0 1.00000000 1.00000000 1.00000000
H 35.78248134 23.49576935 -7.22172158 2374 102 0 1.00000000 1.00000000 1.00000000
H 34.22258372 23.26965607 -7.86815687 2375 102 0 1.00000000 1.00000000 1.00000000
H 33.90173356 21.26269616 -6.35431862 2376 102 0 1.00000000 1.00000000 1.00000000
H 35.56112285 21.41596681 -5.73559041 2377 102 0 1.00000000 1.00000000 1.00000000
H 36.62837120 20.93489726 -7.69648779 2378 102 0 1.00000000 1.00000000 1.00000000
H 35.28378870 21.33278458 -8.73622061 2379 102 0 1.00000000 1.00000000 1.00000000
H 34.11630016 19.19156408 -7.99714777 2380 102 0 1.00000000 1.00000000 1.00000000
H 35.46093943 18.94647975 -6.92601923 2381 102 0 1.00000000 1.00000000 1.00000000
H 36.88081081 18.46406699 -8.97719557 2382 102 0 1.00000000 1.00000000 1.00000000
H 35.58226714 18.82020535 -10.03810861 2383 102 0 1.00000000 1.00000000 1.00000000
H 35.30028898 17.47849378 -8.89428953 2384 102 0 1.00000000 1.00000000 1.00000000
C 33.07830502 13.40124007 -0.03980790 2385 103 0 0.56500000 0.56500000 0.56500000
C 34.26326632 13.41296334 -1.03998556 2386 103 0 0.56500000 0.56500000 0.56500000
C 35.01219450 14.81358106 -0.94756340 2387 103 0 0.56500000 0.56500000 0.56500000
C 34.08706249 15.88497911 -1.54136506 2388 103 0 0.56500000 0.56500000 0.56500000
C 33.43034393 15.69006342 -2.85356878 2389 103 0 0.56500000 0.56500000 0.56500000
C 34.31084279 16.11848958 -4.09149732 2390 103 0 0.56500000 0.56500000 0.56500000
C 35.51791798 15.15251438 -4.39011550 2391 103 0 0.56500000 0.56500000 0.56500000
H 32.14945856 13.90454231 -0.26928917 2392 103 0 1.00000000 1.00000000 1.00000000
H 33.46241919 13.73767908 0.90678119 2393 103 0 1.00000000 1.00000000 1.00000000
H 32.81269415 12.32158402 0.18974465 2394 103 0 1.00000000 1.00000000 1.00000000
H 34.04009320 13.13991638 -2.04712355 2395 103 0 1.00000000 1.00000000 1.00000000
H 34.93913433 12.55410381 -0.76517309 2396 103 0 1.00000000 1.00000000 1.00000000
H 35.98769456 14.73621586 -1.39578837 2397 103 0 1.00000000 1.00000000 1.00000000
H 35.05129240 14.96141913 0.12916685 2398 103 0 1.00000000 1.00000000 1.00000000
H 34.55300968 16.88653479 -1.52251050 2399 103 0 1.00000000 1.00000000 1.00000000
H 33.31165587 15.97061963 -0.80001074 2400 103 0 1.00000000 1.00000000 1.00000000
H 32.51997357 16.24348057 -2.83676176 2401 103 0 1.00000000 1.00000000 1.00000000
H 33.23207830 14.58892967 -2.99414137 2402 103 0 1.00000000 1.00000000 1.00000000
H 34.64033463 17.11616046 -3.87712529 2403 103 0 1.00000000 1.00000000 1.00000000
H 33.74462245 16.18815383 -5.01845354 2404 103 0 1.00000000 1.00000000 1.00000000
H 35.86097027 15.13063198 -5.47612084 2405 103 0 1.00000000 1.00000000 1.00000000
H 35.24623409 14.14112285 -4.01825654 2406 103 0 1.00000000 1.00000000 1.00000000
H 36.36094710 15.39866824 -3.77063261 2407 103 0 1.00000000 1.00000000 1.00000000
C 39.64726003 14.30627516 34.09699313 2408 104 0 0.56500000 0.56500000 0.56500000
C 39.37186869 14.20664593 32.62165745 2409 104 0 0.56500000 0.56500000 0.56500000
C 40.50511023 13.58290988 31.73043788 2410 104 0 0.56500000 0.56500000 0.56500000
C 40.89341316 12.13183381 32.08861837 2411 104 0 0.56500000 0.56500000 0.56500000
C 42.01545310 11.59321606 31.18569524 2412 104 0 0.56500000 0.56500000 0.56500000
C 43.43663607 12.00896887 31.61776520 2413 104 0 0.56500000 0.56500000 0.56500000
C 43.91510179 11.21083031 32.85115554 2414 104 0 0.56500000 0.56500000 0.56500000
H 40.72537257 14.27775725 34.41545071 2415 104 0 1.00000000 1.00000000 1.00000000
H 39.28809780 13.44210911 34.67456727 2416 104 0 1.00000000 1.00000000 1.00000000
H 39.22810935 15.12732576 34.69761672 2417 104 0 1.00000000 1.00000000 1.00000000
H 39.24783157 15.21497073 32.22628916 2418 104 0 1.00000000 1.00000000 1.00000000
H 38.43368632 13.68894982 32.39454274 2419 104 0 1.00000000 1.00000000 1.00000000
H 41.42912576 14.16524470 31.76439805 2420 104 0 1.00000000 1.00000000 1.00000000
H 40.13079203 13.49859311 30.67154127 2421 104 0 1.00000000 1.00000000 1.00000000
H 40.05162740 11.50899632 31.86890190 2422 104 0 1.00000000 1.00000000 1.00000000
H 41.17202431 11.87043320 33.10362533 2423 104 0 1.00000000 1.00000000 1.00000000
H 41.70132818 11.92490682 30.15848707 2424 104 0 1.00000000 1.00000000 1.00000000
H 41.97043380 10.48127956 31.18290592 2425 104 0 1.00000000 1.00000000 1.00000000
H 43.57741395 13.13615755 31.82360536 2426 104 0 1.00000000 1.00000000 1.00000000
H 44.13736440 11.89445176 30.77584079 2427 104 0 1.00000000 1.00000000 1.00000000
H 43.41100845 11.45874668 33.79877721 2428 104 0 1.00000000 1.00000000 1.00000000
H 44.98876840 11.37527708 32.89865451 2429 104 0 1.00000000 1.00000000 1.00000000
H 43.69118854 10.13007172 32.68363200 2430 104 0 1.00000000 1.00000000 1.00000000
C 25.77189760 39.13945557 -2.12703301 2431 105 0 0.56500000 0.56500000 0.56500000
C 26.28951632 37.82789912 -2.60872779 2432 105 0 0.56500000 0.56500000 0.56500000
C 26.11101072 37.64617523 -4.12518146 2433 105 0 0.56500000 0.56500000 0.56500000
C 26.72801125 36.31360633 -4.70483122 2434 105 0 0.56500000 0.56500000 0.56500000
C 28.26450885 36.39018691 -4.94496180 2435 105 0 0.56500000 0.56500000 0.56500000
C 28.84814322 35.01241811 -4.76695206 2436 105 0 0.56500000 0.56500000 0.56500000
C 28.61318644 33.98446525 -5.91116060 2437 105 0 0.56500000 0.56500000 0.56500000
H 24.71975238 39.22578157 -2.40097191 2438 105 0 1.00000000 1.00000000 1.00000000
H 26.19396895 39.97740002 -2.62534917 2439 105 0 1.00000000 1.00000000 1.00000000
H 25.84813508 39.29222709 -1.03259704 2440 105 0 1.00000000 1.00000000 1.00000000
H 25.70078094 37.06080772 -2.08639212 2441 105 0 1.00000000 1.00000000 1.00000000
H 27.38683453 37.61907468 -2.33010147 2442 105 0 1.00000000 1.00000000 1.00000000
H 26.65651599 38.56827969 -4.51163589 2443 105 0 1.00000000 1.00000000 1.00000000
H 25.03710797 37.73083826 -4.35721351 2444 105 0 1.00000000 1.00000000 1.00000000
H 26.24579164 36.05707434 -5.64551771 2445 105 0 1.00000000 1.00000000 1.00000000
H 26.52890207 35.50214408 -4.05622574 2446 105 0 1.00000000 1.00000000 1.00000000
H 28.66684913 37.20132073 -4.34882244 2447 105 0 1.00000000 1.00000000 1.00000000
H 28.39297380 36.70734464 -6.02827666 2448 105 0 1.00000000 1.00000000 1.00000000
H 28.42862665 34.49324157 -3.92912532 2449 105 0 1.00000000 1.00000000 1.00000000
H 29.93655749 35.06233709 -4.47595125 2450 105 0 1.00000000 1.00000000 1.00000000
H 28.79299581 34.43400380 -6.89200004 2451 105 0 1.00000000 1.00000000 1.00000000
H 27.55405138 33.68469780 -6.00331663 2452 105 0 1.00000000 1.00000000 1.00000000
H 29.23407873 33.04193771 -5.79762944 2453 105 0 1.00000000 1.00000000 1.00000000
C 12.64490261 31.81751574 12.83693936 2454 106 0 0.56500000 0.56500000 0.56500000
C 12.96615926 33.24841810 12.64230010 2455 106 0 0.56500000 0.56500000 0.56500000
C 14.45671699 33.44844337 12.37277156 2456 106 0 0.56500000 0.56500000 0.56500000
C 14.86237210 34.93276130 12.47796798 2457 106 0 0.56500000 0.56500000 0.56500000
C 14.29278537 35.85763892 11.37598070 2458 106 0 0.56500000 0.56500000 0.56500000
C 14.58469796 37.29687289 11.65175790 2459 106 0 0.56500000 0.56500000 0.56500000
C 13.83471046 38.00386460 12.71238081 2460 106 0 0.56500000 0.56500000 0.56500000
H 13.05754528 31.36936635 13.78389909 2461 106 0 1.00000000 1.00000000 1.00000000
H 12.99696502 31.22048598 12.04026613 2462 106 0 1.00000000 1.00000000 1.00000000
H 11.56189217 31.55476707 12.87577202 2463 106 0 1.00000000 1.00000000 1.00000000
H 12.76908123 33.84798167 13.56362959 2464 106 0 1.00000000 1.00000000 1.00000000
H 12.43158792 33.67831719 11.75717149 2465 106 0 1.00000000 1.00000000 1.00000000
H 14.69304954 33.03581330 11.37512186 2466 106 0 1.00000000 1.00000000 1.00000000
H 15.01219021 32.81334770 13.02461871 2467 106 0 1.00000000 1.00000000 1.00000000
H 15.94065773 35.03374829 12.46192277 2468 106 0 1.00000000 1.00000000 1.00000000
H 14.54330924 35.23536029 13.51976031 2469 106 0 1.00000000 1.00000000 1.00000000
H 13.18853048 35.60554182 11.40174542 2470 106 0 1.00000000 1.00000000 1.00000000
H 14.66090410 35.57729464 10.38308993 2471 106 0 1.00000000 1.00000000 1.00000000
H 14.43666999 37.82744824 10.76238901 2472 106 0 1.00000000 1.00000000 1.00000000
H 15.68309240 37.38495947 11.78362205 2473 106 0 1.00000000 1.00000000 1.00000000
H 13.78254773 37.51656713 13.70060196 2474 106 0 1.00000000 1.00000000 1.00000000
H 12.74277129 38.06342862 12.55305086 2475 106 0 1.00000000 1.00000000 1.00000000
H 14.26583322 38.95210828 12.95301833 2476 106 0 1.00000000 1.00000000 1.00000000
C 21.61890207 8.09944327 2.01343893 2477 107 0 0.56500000 0.56500000 0.56500000
C 22.19000195 9.47255351 1.91831458 2478 107 0 0.56500000 0.56500000 0.56500000
C 23.68163409 9.56919912 2.34573989 2479 107 0 0.56500000 0.56500000 0.56500000
C 24.18706851 10.92153316 2.86276521 2480 107 0 0.56500000 0.56500000 0.56500000
C 23.93918070 12.11437607 1.99501876 2481 107 0 0.56500000 0.56500000 0.56500000
C 24.75756989 13.37214783 2.41043634 2482 107 0 0.56500000 0.56500000 0.56500000
C 24.59369309 13.75419712 3.88678954 2483 107 0 0.56500000 0.56500000 0.56500000
H 21.80659456 7.68699459 3.00630220 2484 107 0 1.00000000 1.00000000 1.00000000
H 22.05846721 7.42172965 1.29113469 2485 107 0 1.00000000 1.00000000 1.00000000
H 20.54223934 8.11965911 1.88387328 2486 107 0 1.00000000 1.00000000 1.00000000
H 21.67160834 10.23164532 2.51476560 2487 107 0 1.00000000 1.00000000 1.00000000
H 22.12974291 9.77412850 0.88785768 2488 107 0 1.00000000 1.00000000 1.00000000
H 24.37722314 9.21888102 1.57493908 2489 107 0 1.00000000 1.00000000 1.00000000
H 23.70136296 8.93082782 3.22023062 2490 107 0 1.00000000 1.00000000 1.00000000
H 25.20733088 10.80648478 3.04778160 2491 107 0 1.00000000 1.00000000 1.00000000
H 23.67472721 11.10447453 3.80223570 2492 107 0 1.00000000 1.00000000 1.00000000
H 22.84905217 12.29101961 2.07154914 2493 107 0 1.00000000 1.00000000 1.00000000
H 24.21815941 11.94369937 0.91057172 2494 107 0 1.00000000 1.00000000 1.00000000
H 24.55366385 14.20054044 1.68801418 2495 107 0 1.00000000 1.00000000 1.00000000
H 25.87023115 13.19851947 2.32933446 2496 107 0 1.00000000 1.00000000 1.00000000
H 23.59798841 13.71757671 4.32324426 2497 107 0 1.00000000 1.00000000 1.00000000
H 24.97391420 14.74083845 4.15647300 2498 107 0 1.00000000 1.00000000 1.00000000
H 25.19038348 13.08783605 4.43329815 2499 107 0 1.00000000 1.00000000 1.00000000
C 29.28027755 44.11210908 9.21273387 2500 108 0 0.56500000 0.56500000 0.56500000
C 28.69406139 42.86787491 8.61622766 2501 108 0 0.56500000 0.56500000 0.56500000
C 29.63740180 42.35324688 7.55383426 2502 108 0 0.56500000 0.56500000 0.56500000
C 29.20408189 40.99261822 7.05110522 2503 108 0 0.56500000 0.56500000 0.56500000
C 30.25813184 40.22660158 6.34483245 2504 108 0 0.56500000 0.56500000 0.56500000
C 30.01603848 38.76617457 6.01445245 2505 108 0 0.56500000 0.56500000 0.56500000
C 31.18348702 38.21034565 5.19944625 2506 108 0 0.56500000 0.56500000 0.56500000
H 28.54245736 44.66729523 9.68277327 2507 108 0 1.00000000 1.00000000 1.00000000
H 29.81679943 44.71301577 8.41363958 2508 108 0 1.00000000 1.00000000 1.00000000
H 29.99904590 43.83657193 10.03791861 2509 108 0 1.00000000 1.00000000 1.00000000
H 27.74483628 43.12311844 8.12721839 2510 108 0 1.00000000 1.00000000 1.00000000
H 28.40639778 42.11910387 9.37899439 2511 108 0 1.00000000 1.00000000 1.00000000
H 30.61751493 42.34422424 8.06611279 2512 108 0 1.00000000 1.00000000 1.00000000
H 29.78960116 43.04024926 6.68208745 2513 108 0 1.00000000 1.00000000 1.00000000
H 28.31563540 41.24465914 6.48110613 2514 108 0 1.00000000 1.00000000 1.00000000
H 28.80884260 40.52376538 7.94820657 2515 108 0 1.00000000 1.00000000 1.00000000
H 31.20126495 40.29720135 6.96647679 2516 108 0 1.00000000 1.00000000 1.00000000
H 30.52107825 40.65095059 5.31965781 2517 108 0 1.00000000 1.00000000 1.00000000
H 29.03515528 38.63402684 5.50097933 2518 108 0 1.00000000 1.00000000 1.00000000
H 29.97388544 38.29931105 6.97299417 2519 108 0 1.00000000 1.00000000 1.00000000
H 32.14717490 38.13831142 5.70971009 2520 108 0 1.00000000 1.00000000 1.00000000
H 31.27394835 38.88166496 4.26284561 2521 108 0 1.00000000 1.00000000 1.00000000
H 30.99942187 37.11760212 4.93299539 2522 108 0 1.00000000 1.00000000 1.00000000
C 39.28698239 27.81616903 34.92321821 2523 109 0 0.56500000 0.56500000 0.56500000
C 40.71716823 27.60175825 35.47008005 2524 109 0 0.56500000 0.56500000 0.56500000
C 41.62511204 28.85862857 35.23702579 2525 109 0 0.56500000 0.56500000 0.56500000
C 43.12920259 28.38660338 35.29403429 2526 109 0 0.56500000 0.56500000 0.56500000
C 44.07471824 29.54357662 35.18740488 2527 109 0 0.56500000 0.56500000 0.56500000
C 43.94409520 30.23366142 33.83965753 2528 109 0 0.56500000 0.56500000 0.56500000
C 45.09446458 31.19220097 33.53198884 2529 109 0 0.56500000 0.56500000 0.56500000
H 38.64722701 26.93588510 35.08197137 2530 109 0 1.00000000 1.00000000 1.00000000
H 39.31948540 28.12061535 33.87352928 2531 109 0 1.00000000 1.00000000 1.00000000
H 38.85353758 28.62248718 35.52921002 2532 109 0 1.00000000 1.00000000 1.00000000
H 41.19561904 26.82979874 34.89297004 2533 109 0 1.00000000 1.00000000 1.00000000
H 40.64299260 27.28412027 36.50417730 2534 109 0 1.00000000 1.00000000 1.00000000
H 41.45128804 29.67631036 35.93793366 2535 109 0 1.00000000 1.00000000 1.00000000
H 41.42607356 29.24760197 34.28364509 2536 109 0 1.00000000 1.00000000 1.00000000
H 43.36151402 27.75830878 34.45611323 2537 109 0 1.00000000 1.00000000 1.00000000
H 43.30922092 27.80154229 36.22905341 2538 109 0 1.00000000 1.00000000 1.00000000
H 45.09584066 29.10223345 35.38847271 2539 109 0 1.00000000 1.00000000 1.00000000
H 43.87376509 30.20603428 35.99605073 2540 109 0 1.00000000 1.00000000 1.00000000
H 43.01265377 30.80597619 34.05006744 2541 109 0 1.00000000 1.00000000 1.00000000
H 43.81991762 29.46548959 33.00118270 2542 109 0 1.00000000 1.00000000 1.00000000
H 45.01610018 31.66273078 32.54457609 2543 109 0 1.00000000 1.00000000 1.00000000
H 46.01370458 30.60975731 33.57502073 2544 109 0 1.00000000 1.00000000 1.00000000
H 45.06698910 32.14317638 34.13221987 2545 109 0 1.00000000 1.00000000 1.00000000
C 42.88060027 48.24577399 6.44497279 2546 110 0 0.56500000 0.56500000 0.56500000
C 43.18312966 49.63148617 6.91003167 2547 110 0 0.56500000 0.56500000 0.56500000
C 42.05263918 50.33611609 7.55997869 2548 110 0 0.56500000 0.56500000 0.56500000
C 41.14499107 49.54103415 8.53744853 2549 110 0 0.56500000 0.56500000 0.56500000
C 40.13771900 50.47061351 9.19754622 2550 110 0 0.56500000 0.56500000 0.56500000
C 38.95313703 49.65780484 9.89180204 2551 110 0 0.56500000 0.56500000 0.56500000
C 37.92248245 50.66091955 10.54182992 2552 110 0 0.56500000 0.56500000 0.56500000
H 42.29034925 47.63187940 7.09243307 2553 110 0 1.00000000 1.00000000 1.00000000
H 43.88529994 47.72990232 6.32066076 2554 110 0 1.00000000 1.00000000 1.00000000
H 42.44013855 48.12189446 5.43519658 2555 110 0 1.00000000 1.00000000 1.00000000
H 43.44712955 50.17569670 5.99999031 2556 110 0 1.00000000 1.00000000 1.00000000
H 44.06978470 49.54962110 7.53700290 2557 110 0 1.00000000 1.00000000 1.00000000
H 41.46367317 50.88757161 6.74172974 2558 110 0 1.00000000 1.00000000 1.00000000
H 42.52430020 51.15920077 8.08447715 2559 110 0 1.00000000 1.00000000 1.00000000
H 41.85406468 49.15215268 9.27126988 2560 110 0 1.00000000 1.00000000 1.00000000
H 40.61072566 48.72366174 8.09756991 2561 110 0 1.00000000 1.00000000 1.00000000
H 39.76065112 51.16354277 8.49575534 2562 110 0 1.00000000 1.00000000 1.00000000
H 40.64417427 51.10951880 9.92527053 2563 110 0 1.00000000 1.00000000 1.00000000
H 39.28125091 48.95051836 10.61221087 2564 110 0 1.00000000 1.00000000 1.00000000
H 38.43786094 49.12305078 9.10607863 2565 110 0 1.00000000 1.00000000 1.00000000
H 38.50904158 51.39361712 11.15171364 2566 110 0 1.00000000 1.00000000 1.00000000
H 37.11554137 50.14160907 11.19411024 2567 110 0 1.00000000 1.00000000 1.00000000
H 37.47639936 51.26044789 9.74135698 2568 110 0 1.00000000 1.00000000 1.00000000
C 22.08854063 32.37716337 31.05769013 2569 111 0 0.56500000 0.56500000 0.56500000
C 23.07368835 31.55428348 30.12732269 2570 111 0 0.56500000 0.56500000 0.56500000
C 22.67125158 31.41924071 28.66193816 2571 111 0 0.56500000 0.56500000 0.56500000
C 23.74704720 30.91263772 27.78431566 2572 111 0 0.56500000 0.56500000 0.56500000
C 23.97365138 29.41193283 28.11705090 2573 111 0 0.56500000 0.56500000 0.56500000
C 24.15865556 28.45816407 26.94796781 2574 111 0 0.56500000 0.56500000 0.56500000
C 22.99467377 28.46396305 26.01985179 2575 111 0 0.56500000 0.56500000 0.56500000
H 21.11757522 31.80339041 31.06073008 2576 111 0 1.00000000 1.00000000 1.00000000
H 21.99558602 33.36144516 30.72200107 2577 111 0 1.00000000 1.00000000 1.00000000
H 22.42672323 32.45249446 32.04649871 2578 111 0 1.00000000 1.00000000 1.00000000
H 23.14929579 30.54289135 30.54255963 2579 111 0 1.00000000 1.00000000 1.00000000
H 24.05776053 31.98759532 30.17284496 2580 111 0 1.00000000 1.00000000 1.00000000
H 22.38036350 32.43450880 28.24429540 2581 111 0 1.00000000 1.00000000 1.00000000
H 21.78725176 30.83916063 28.61041438 2582 111 0 1.00000000 1.00000000 1.00000000
H 24.69144929 31.49733919 27.91541851 2583 111 0 1.00000000 1.00000000 1.00000000
H 23.30551468 31.01838938 26.78801112 2584 111 0 1.00000000 1.00000000 1.00000000
H 23.11417547 28.98173386 28.64341986 2585 111 0 1.00000000 1.00000000 1.00000000
H 24.86149683 29.25880615 28.73647449 2586 111 0 1.00000000 1.00000000 1.00000000
H 24.22726980 27.46878507 27.42212545 2587 111 0 1.00000000 1.00000000 1.00000000
H 25.10885984 28.60080348 26.45931548 2588 111 0 1.00000000 1.00000000 1.00000000
H 21.98590867 28.25230334 26.47055178 2589 111 0 1.00000000 1.00000000 1.00000000
H 23.15191958 27.66904570 25.30890991 2590 111 0 1.00000000 1.00000000 1.00000000
H 22.83166355 29.32421043 25.44649933 2591 111 0 1.00000000 1.00000000 1.00000000
C 34.22378880 46.72522758 16.64254137 2592 112 0 0.56500000 0.56500000 0.56500000
C 33.36484313 47.17669071 15.46356697 2593 112 0 0.56500000 0.56500000 0.56500000
C 32.82747303 45.93864221 14.79026432 2594 112 0 0.56500000 0.56500000 0.56500000
C 31.70028557 46.18917446 13.66898178 2595 112 0 0.56500000 0.56500000 0.56500000
C 31.19928624 44.86033526 13.04672879 2596 112 0 0.56500000 0.56500000 0.56500000
C 30.32245006 43.99493158 14.00435140 2597 112 0 0.56500000 0.56500000 0.56500000
C 29.24841589 44.71027671 14.76856924 2598 112 0 0.56500000 0.56500000 0.56500000
H 35.06636023 46.00689970 16.26561784 2599 112 0 1.00000000 1.00000000 1.00000000
H 33.62419516 46.23556456 17.39606035 2600 112 0 1.00000000 1.00000000 1.00000000
H 34.68908315 47.52080078 17.17171575 2601 112 0 1.00000000 1.00000000 1.00000000
H 33.85510634 47.83401329 14.73963294 2602 112 0 1.00000000 1.00000000 1.00000000
H 32.47192390 47.77112799 15.89431252 2603 112 0 1.00000000 1.00000000 1.00000000
H 32.38046776 45.36633052 15.64917346 2604 112 0 1.00000000 1.00000000 1.00000000
H 33.58404088 45.27028491 14.29400102 2605 112 0 1.00000000 1.00000000 1.00000000
H 32.03468468 46.89910331 12.90783205 2606 112 0 1.00000000 1.00000000 1.00000000
H 30.83484310 46.63219610 14.07965025 2607 112 0 1.00000000 1.00000000 1.00000000
H 31.92501813 44.10291227 12.66762986 2608 112 0 1.00000000 1.00000000 1.00000000
H 30.56345456 45.11065742 12.23057791 2609 112 0 1.00000000 1.00000000 1.00000000
H 30.95190407 43.44034665 14.59993227 2610 112 0 1.00000000 1.00000000 1.00000000
H 29.75483539 43.21487694 13.43669819 2611 112 0 1.00000000 1.00000000 1.00000000
H 29.66869771 45.17004164 15.63472159 2612 112 0 1.00000000 1.00000000 1.00000000
H 28.63285010 43.92386449 15.25536307 2613 112 0 1.00000000 1.00000000 1.00000000
H 28.64446983 45.37504676 14.21711253 2614 112 0 1.00000000 1.00000000 1.00000000
C 15.84837422 20.06587381 9.16037684 2615 113 0 0.56500000 0.56500000 0.56500000
C 14.63153345 19.13026124 9.35447401 2616 113 0 0.56500000 0.56500000 0.56500000
C 13.37320885 19.55816638 8.58922978 2617 113 0 0.56500000 0.56500000 0.56500000
C 12.18243571 18.56912769 8.47187326 2618 113 0 0.56500000 0.56500000 0.56500000
C 11.12007540 18.97140560 7.51091386 2619 113 0 0.56500000 0.56500000 0.56500000
C 10.55451513 20.29065654 7.75471889 2620 113 0 0.56500000 0.56500000 0.56500000
C 9.80879251 20.43932432 9.08350467 2621 113 0 0.56500000 0.56500000 0.56500000
H 15.49201870 21.09260221 9.29972656 2622 113 0 1.00000000 1.00000000 1.00000000
H 16.17749440 19.95280961 8.09793215 2623 113 0 1.00000000 1.00000000 1.00000000
H 16.77801530 19.96396102 9.76453769 2624 113 0 1.00000000 1.00000000 1.00000000
H 14.36038888 18.98160430 10.37418616 2625 113 0 1.00000000 1.00000000 1.00000000
H 14.96311017 18.14899494 9.06734606 2626 113 0 1.00000000 1.00000000 1.00000000
H 13.68172806 19.75120202 7.56589883 2627 113 0 1.00000000 1.00000000 1.00000000
H 13.04951171 20.55798214 8.94747379 2628 113 0 1.00000000 1.00000000 1.00000000
H 11.90009306 18.23863135 9.45475021 2629 113 0 1.00000000 1.00000000 1.00000000
H 12.51592618 17.56794958 8.14574035 2630 113 0 1.00000000 1.00000000 1.00000000
H 10.40491422 18.18317655 7.47791292 2631 113 0 1.00000000 1.00000000 1.00000000
H 11.55175320 18.94506882 6.47606831 2632 113 0 1.00000000 1.00000000 1.00000000
H 9.94483036 20.47739553 6.82348159 2633 113 0 1.00000000 1.00000000 1.00000000
H 11.23763586 21.09412640 7.59177096 2634 113 0 1.00000000 1.00000000 1.00000000
H 9.49792525 21.45343560 9.22296504 2635 113 0 1.00000000 1.00000000 1.00000000
H 10.48479629 20.14838208 9.91964169 2636 113 0 1.00000000 1.00000000 1.00000000
H 8.93214294 19.82871248 9.04562587 2637 113 0 1.00000000 1.00000000 1.00000000
C 8.18500400 11.99612002 11.28252235 2638 114 0 0.56500000 0.56500000 0.56500000
C 9.17355988 11.32356497 10.37003187 2639 114 0 0.56500000 0.56500000 0.56500000
C 8.61529863 11.30928307 8.87225521 2640 114 0 0.56500000 0.56500000 0.56500000
C 9.01601620 12.65036455 8.12430107 2641 114 0 0.56500000 0.56500000 0.56500000
C 8.45263085 12.74164269 6.67615746 2642 114 0 0.56500000 0.56500000 0.56500000
C 6.90348827 12.78441937 6.55659742 2643 114 0 0.56500000 0.56500000 0.56500000
C 6.42959895 12.82713676 5.06606368 2644 114 0 0.56500000 0.56500000 0.56500000
H 7.29334833 11.36886823 11.42256903 2645 114 0 1.00000000 1.00000000 1.00000000
H 7.88193255 13.01930194 10.87652247 2646 114 0 1.00000000 1.00000000 1.00000000
H 8.59487307 12.24518890 12.30148506 2647 114 0 1.00000000 1.00000000 1.00000000
H 9.28670598 10.26501652 10.76370363 2648 114 0 1.00000000 1.00000000 1.00000000
H 10.09446081 11.87546612 10.34365827 2649 114 0 1.00000000 1.00000000 1.00000000
H 7.54365914 11.28792564 8.86224677 2650 114 0 1.00000000 1.00000000 1.00000000
H 9.09674086 10.49294914 8.21696743 2651 114 0 1.00000000 1.00000000 1.00000000
H 10.06581408 12.68630125 8.03977243 2652 114 0 1.00000000 1.00000000 1.00000000
H 8.64739148 13.52451317 8.71155913 2653 114 0 1.00000000 1.00000000 1.00000000
H 8.78605374 11.90789526 6.13528486 2654 114 0 1.00000000 1.00000000 1.00000000
H 8.73351300 13.76029507 6.25084611 2655 114 0 1.00000000 1.00000000 1.00000000
H 6.37306431 13.50430614 7.05486150 2656 114 0 1.00000000 1.00000000 1.00000000
H 6.53644243 11.87841786 7.05289285 2657 114 0 1.00000000 1.00000000 1.00000000
H 5.34682200 12.77527282 5.04918360 2658 114 0 1.00000000 1.00000000 1.00000000
H 6.92126679 11.97058504 4.60728333 2659 114 0 1.00000000 1.00000000 1.00000000
H 6.77466066 13.68606889 4.42716876 2660 114 0 1.00000000 1.00000000 1.00000000
C 36.42115527 44.59981313 23.84040639 2661 115 0 0.56500000 0.56500000 0.56500000
C 36.61606393 43.29924280 24.52159238 2662 115 0 0.56500000 0.56500000 0.56500000
C 35.77629744 42.15832527 23.90273652 2663 115 0 0.56500000 0.56500000 0.56500000
C 35.78349162 40.82916216 24.67967646 2664 115 0 0.56500000 0.56500000 0.56500000
C 34.77626265 39.83089107 24.13024030 2665 115 0 0.56500000 0.56500000 0.56500000
C 33.34392565 40.13358294 24.53762095 2666 115 0 0.56500000 0.56500000 0.56500000
C 32.35020786 38.94024836 24.26801806 2667 115 0 0.56500000 0.56500000 0.56500000
H 36.90198605 44.66034885 22.91940085 2668 115 0 1.00000000 1.00000000 1.00000000
H 36.89536313 45.34200383 24.38927832 2669 115 0 1.00000000 1.00000000 1.00000000
H 35.32754779 44.86647867 23.73763900 2670 115 0 1.00000000 1.00000000 1.00000000
H 36.35569384 43.47022651 25.61174930 2671 115 0 1.00000000 1.00000000 1.00000000
H 37.70883186 42.95113776 24.57522074 2672 115 0 1.00000000 1.00000000 1.00000000
H 36.15912766 41.86583089 22.94961454 2673 115 0 1.00000000 1.00000000 1.00000000
H 34.78518991 42.51404455 23.80695865 2674 115 0 1.00000000 1.00000000 1.00000000
H 35.58792742 40.99616495 25.76927910 2675 115 0 1.00000000 1.00000000 1.00000000
H 36.74188740 40.37576685 24.56076248 2676 115 0 1.00000000 1.00000000 1.00000000
H 34.96296988 38.78854758 24.38839749 2677 115 0 1.00000000 1.00000000 1.00000000
H 34.82835200 39.98774664 23.07851505 2678 115 0 1.00000000 1.00000000 1.00000000
H 32.94482308 41.03135766 24.01836111 2679 115 0 1.00000000 1.00000000 1.00000000
H 33.31360897 40.31863826 25.61837251 2680 115 0 1.00000000 1.00000000 1.00000000
H 32.26724176 38.74092725 23.23477746 2681 115 0 1.00000000 1.00000000 1.00000000
H 31.30252354 39.10721484 24.67225849 2682 115 0 1.00000000 1.00000000 1.00000000
H 32.72061422 38.03973674 24.78923914 2683 115 0 1.00000000 1.00000000 1.00000000
C 25.34061268 43.34270925 3.90954765 2684 116 0 0.56500000 0.56500000 0.56500000
C 26.30407251 42.10167217 4.18335660 2685 116 0 0.56500000 0.56500000 0.56500000
C 25.54897583 40.87897285 4.71993974 2686 116 0 0.56500000 0.56500000 0.56500000
C 26.41617194 39.62912901 4.57672179 2687 116 0 0.56500000 0.56500000 0.56500000
C 25.93795035 38.30523856 5.10313747 2688 116 0 0.56500000 0.56500000 0.56500000
C 26.64913643 37.05858904 4.45382919 2689 116 0 0.56500000 0.56500000 0.56500000
C 26.11420519 35.84546882 5.16106206 2690 116 0 0.56500000 0.56500000 0.56500000
H 24.69812522 43.53948498 4.75185733 2691 116 0 1.00000000 1.00000000 1.00000000
H 24.68159035 43.17352301 3.10421096 2692 116 0 1.00000000 1.00000000 1.00000000
H 25.87144124 44.25865657 3.62330378 2693 116 0 1.00000000 1.00000000 1.00000000
H 27.08110756 42.43677765 4.90740583 2694 116 0 1.00000000 1.00000000 1.00000000
H 26.88978702 41.69278305 3.40190152 2695 116 0 1.00000000 1.00000000 1.00000000
H 24.67796001 40.74648925 4.07229732 2696 116 0 1.00000000 1.00000000 1.00000000
H 25.09590215 40.93341416 5.70792689 2697 116 0 1.00000000 1.00000000 1.00000000
H 27.44837705 39.88167354 4.77679782 2698 116 0 1.00000000 1.00000000 1.00000000
H 26.53250265 39.45587640 3.49576413 2699 116 0 1.00000000 1.00000000 1.00000000
H 24.87909176 38.17360368 4.91684585 2700 116 0 1.00000000 1.00000000 1.00000000
H 26.14675628 38.24178471 6.18328766 2701 116 0 1.00000000 1.00000000 1.00000000
H 27.77306497 37.16339998 4.45211156 2702 116 0 1.00000000 1.00000000 1.00000000
H 26.35709563 37.06491751 3.38791219 2703 116 0 1.00000000 1.00000000 1.00000000
H 26.34638969 35.78732941 6.26812973 2704 116 0 1.00000000 1.00000000 1.00000000
H 26.57209245 34.89732032 4.86600466 2705 116 0 1.00000000 1.00000000 1.00000000
H 25.02076097 35.75799543 5.06609759 2706 116 0 1.00000000 1.00000000 1.00000000
C 32.28831300 31.44327836 -4.69276685 2707 117 0 0.56500000 0.56500000 0.56500000
C 32.69309794 31.36741122 -6.17789454 2708 117 0 0.56500000 0.56500000 0.56500000
C 33.80293066 32.37340668 -6.58218229 2709 117 0 0.56500000 0.56500000 0.56500000
C 33.30744276 33.86766459 -6.67177775 2710 117 0 0.56500000 0.56500000 0.56500000
C 32.60999812 34.04008019 -8.09871785 2711 117 0 0.56500000 0.56500000 0.56500000
C 31.85300900 35.39272225 -8.08064371 2712 117 0 0.56500000 0.56500000 0.56500000
C 32.90928023 36.55257143 -8.09475200 2713 117 0 0.56500000 0.56500000 0.56500000
H 33.00158799 31.97386632 -4.10110968 2714 117 0 1.00000000 1.00000000 1.00000000
H 32.25469371 30.37498061 -4.38896951 2715 117 0 1.00000000 1.00000000 1.00000000
H 31.29981607 31.87000997 -4.53651904 2716 117 0 1.00000000 1.00000000 1.00000000
H 31.88394714 31.61505202 -6.84848255 2717 117 0 1.00000000 1.00000000 1.00000000
H 32.97340274 30.32715819 -6.52704280 2718 117 0 1.00000000 1.00000000 1.00000000
H 34.11444515 32.13393870 -7.61266369 2719 117 0 1.00000000 1.00000000 1.00000000
H 34.67466458 32.33755965 -5.94462615 2720 117 0 1.00000000 1.00000000 1.00000000
H 34.05789508 34.65554476 -6.39176775 2721 117 0 1.00000000 1.00000000 1.00000000
H 32.40783367 34.07569383 -5.99730755 2722 117 0 1.00000000 1.00000000 1.00000000
H 31.81485642 33.24282181 -8.16732770 2723 117 0 1.00000000 1.00000000 1.00000000
H 33.37733107 33.94764157 -8.92586031 2724 117 0 1.00000000 1.00000000 1.00000000
H 31.28821597 35.51144295 -7.19149786 2725 117 0 1.00000000 1.00000000 1.00000000
H 31.18997156 35.50009726 -8.96140265 2726 117 0 1.00000000 1.00000000 1.00000000
H 33.55648415 36.46221881 -7.19027967 2727 117 0 1.00000000 1.00000000 1.00000000
H 32.59346719 37.56084875 -8.25290876 2728 117 0 1.00000000 1.00000000 1.00000000
H 33.57683016 36.40041597 -8.91729835 2729 117 0 1.00000000 1.00000000 1.00000000
C 43.19375739 16.38469479 30.17925444 2730 118 0 0.56500000 0.56500000 0.56500000
C 41.98138114 16.72297017 29.21504003 2731 118 0 0.56500000 0.56500000 0.56500000
C 42.14642525 18.01433816 28.39621023 2732 118 0 0.56500000 0.56500000 0.56500000
C 40.88587066 18.39304293 27.55519098 2733 118 0 0.56500000 0.56500000 0.56500000
C 41.16540180 19.32374360 26.31794098 2734 118 0 0.56500000 0.56500000 0.56500000
C 40.06869375 20.43289693 26.05373825 2735 118 0 0.56500000 0.56500000 0.56500000
C 38.64951861 19.92607187 25.51267732 2736 118 0 0.56500000 0.56500000 0.56500000
H 43.42683075 17.32521498 30.64564331 2737 118 0 1.00000000 1.00000000 1.00000000
H 44.02692449 16.15614745 29.52769667 2738 118 0 1.00000000 1.00000000 1.00000000
H 42.99336121 15.54287719 30.87581872 2739 118 0 1.00000000 1.00000000 1.00000000
H 41.03005976 16.73193430 29.71535038 2740 118 0 1.00000000 1.00000000 1.00000000
H 41.99319069 15.99984895 28.31013465 2741 118 0 1.00000000 1.00000000 1.00000000
H 42.98708387 17.93915502 27.71255124 2742 118 0 1.00000000 1.00000000 1.00000000
H 42.46582924 18.84641455 29.02531744 2743 118 0 1.00000000 1.00000000 1.00000000
H 40.17181679 18.93077833 28.27667763 2744 118 0 1.00000000 1.00000000 1.00000000
H 40.34144493 17.45512684 27.33699336 2745 118 0 1.00000000 1.00000000 1.00000000
H 41.44867168 18.77974846 25.34521689 2746 118 0 1.00000000 1.00000000 1.00000000
H 42.12047523 19.78662410 26.45822952 2747 118 0 1.00000000 1.00000000 1.00000000
H 40.42152799 21.19519027 25.36507102 2748 118 0 1.00000000 1.00000000 1.00000000
H 40.04198180 20.93471654 27.05530278 2749 118 0 1.00000000 1.00000000 1.00000000
H 37.97276336 20.73973467 25.25100317 2750 118 0 1.00000000 1.00000000 1.00000000
H 38.12125764 19.27183270 26.18597011 2751 118 0 1.00000000 1.00000000 1.00000000
H 38.85857962 19.31966293 24.63264028 2752 118 0 1.00000000 1.00000000 1.00000000
C 32.06389943 16.42905699 4.72780000 2753 119 0 0.56500000 0.56500000 0.56500000
C 33.34617442 17.28570136 4.66793462 2754 119 0 0.56500000 0.56500000 0.56500000
C 34.00521856 17.08662920 3.29138463 2755 119 0 0.56500000 0.56500000 0.56500000
C 35.45228143 17.64698463 3.27406572 2756 119 0 0.56500000 0.56500000 0.56500000
C 36.10479068 17.53579930 1.93934508 2757 119 0 0.56500000 0.56500000 0.56500000
C 37.54532218 17.93693402 1.76740294 2758 119 0 0.56500000 0.56500000 0.56500000
C 37.95238626 17.70109841 0.36440309 2759 119 0 0.56500000 0.56500000 0.56500000
H 32.33739244 15.51626644 4.16580638 2760 119 0 1.00000000 1.00000000 1.00000000
H 31.33412392 16.97388719 4.08871734 2761 119 0 1.00000000 1.00000000 1.00000000
H 31.58257682 16.31285942 5.71240338 2762 119 0 1.00000000 1.00000000 1.00000000
H 33.99581282 16.96498323 5.57025827 2763 119 0 1.00000000 1.00000000 1.00000000
H 33.18746687 18.41414009 4.82761464 2764 119 0 1.00000000 1.00000000 1.00000000
H 33.53503171 17.59822921 2.45469681 2765 119 0 1.00000000 1.00000000 1.00000000
H 33.97891516 16.00496939 3.03276979 2766 119 0 1.00000000 1.00000000 1.00000000
H 36.09022035 17.29179155 4.05775535 2767 119 0 1.00000000 1.00000000 1.00000000
H 35.46973508 18.73791882 3.48694870 2768 119 0 1.00000000 1.00000000 1.00000000
H 35.51801978 18.05058568 1.19738297 2769 119 0 1.00000000 1.00000000 1.00000000
H 35.94821676 16.47332893 1.54043895 2770 119 0 1.00000000 1.00000000 1.00000000
H 38.14268041 17.41466374 2.46390262 2771 119 0 1.00000000 1.00000000 1.00000000
H 37.60341722 18.96574957 2.25425345 2772 119 0 1.00000000 1.00000000 1.00000000
H 37.58128475 16.72252690 -0.05006212 2773 119 0 1.00000000 1.00000000 1.00000000
H 39.02031990 17.68881287 0.31005594 2774 119 0 1.00000000 1.00000000 1.00000000
H 37.54906548 18.46142032 -0.34051073 2775 119 0 1.00000000 1.00000000 1.00000000
C 38.73865102 33.48690354 16.98892500 2776 120 0 0.56500000 0.56500000 0.56500000
C 38.83955303 32.25276909 17.92574059 2777 120 0 0.56500000 0.56500000 0.56500000
C 39.77901940 31.09746052 17.36911548 2778 120 0 0.56500000 0.56500000 0.56500000
C 41.29104331 31.18532358 17.65651388 2779 120 0 0.56500000 0.56500000 0.56500000
C 42.02556380 29.96752075 17.24732029 2780 120 0 0.56500000 0.56500000 0.56500000
C 43.44522463 29.96988383 17.78431443 2781 120 0 0.56500000 0.56500000 0.56500000
C 44.41059947 31.00863554 17.20109142 2782 120 0 0.56500000 0.56500000 0.56500000
H 38.72550215 33.12794421 15.94353320 2783 120 0 1.00000000 1.00000000 1.00000000
H 39.63301023 34.16206130 17.16359913 2784 120 0 1.00000000 1.00000000 1.00000000
H 37.87425382 34.08512182 17.11812944 2785 120 0 1.00000000 1.00000000 1.00000000
H 37.75759676 31.92451295 17.94405696 2786 120 0 1.00000000 1.00000000 1.00000000
H 39.10129414 32.53995145 18.95232004 2787 120 0 1.00000000 1.00000000 1.00000000
H 39.64865754 31.14979697 16.28571487 2788 120 0 1.00000000 1.00000000 1.00000000
H 39.42459395 30.11445170 17.68018125 2789 120 0 1.00000000 1.00000000 1.00000000
H 41.42853583 31.20420288 18.78128555 2790 120 0 1.00000000 1.00000000 1.00000000
H 41.72885911 32.09847942 17.24763620 2791 120 0 1.00000000 1.00000000 1.00000000
H 42.12747558 29.85595314 16.14846700 2792 120 0 1.00000000 1.00000000 1.00000000
H 41.54786426 29.05804966 17.65580385 2793 120 0 1.00000000 1.00000000 1.00000000
H 43.87728087 28.93031637 17.62514181 2794 120 0 1.00000000 1.00000000 1.00000000
H 43.55212486 30.04144436 18.88031808 2795 120 0 1.00000000 1.00000000 1.00000000
H 43.90006199 31.98301516 16.95185928 2796 120 0 1.00000000 1.00000000 1.00000000
H 44.76747225 30.56839648 16.26018416 2797 120 0 1.00000000 1.00000000 1.00000000
H 45.26811227 31.21590159 17.84618455 2798 120 0 1.00000000 1.00000000 1.00000000
C 29.74867237 18.65663767 28.45816780 2799 121 0 0.56500000 0.56500000 0.56500000
C 31.12454138 19.34728308 28.74899382 2800 121 0 0.56500000 0.56500000 0.56500000
C 31.57569764 20.34244588 27.67229581 2801 121 0 0.56500000 0.56500000 0.56500000
C 32.22198078 19.67160558 26.45086609 2802 121 0 0.56500000 0.56500000 0.56500000
C 32.56181796 20.60847927 25.29716555 2803 121 0 0.56500000 0.56500000 0.56500000
C 33.79476483 21.43272479 25.63093808 2804 121 0 0.56500000 0.56500000 0.56500000
C 34.18777063 22.35153392 24.50280420 2805 121 0 0.56500000 0.56500000 0.56500000
H 28.94014897 19.30505968 28.71797800 2806 121 0 1.00000000 1.00000000 1.00000000
H 29.54905542 17.75941569 29.06077508 2807 121 0 1.00000000 1.00000000 1.00000000
H 29.70950825 18.41232521 27.40074689 2808 121 0 1.00000000 1.00000000 1.00000000
H 31.92120459 18.52329042 28.71099708 2809 121 0 1.00000000 1.00000000 1.00000000
H 31.13233064 19.83486553 29.75942687 2810 121 0 1.00000000 1.00000000 1.00000000
H 32.36291174 20.92987283 28.16240908 2811 121 0 1.00000000 1.00000000 1.00000000
H 30.79141966 20.98574712 27.20758826 2812 121 0 1.00000000 1.00000000 1.00000000
H 31.54219002 18.88373101 26.11684370 2813 121 0 1.00000000 1.00000000 1.00000000
H 33.15828251 19.20434831 26.83774164 2814 121 0 1.00000000 1.00000000 1.00000000
H 31.78696761 21.31222989 24.94989011 2815 121 0 1.00000000 1.00000000 1.00000000
H 32.84727917 20.01593487 24.38425179 2816 121 0 1.00000000 1.00000000 1.00000000
H 34.50876918 20.65494921 25.92765819 2817 121 0 1.00000000 1.00000000 1.00000000
H 33.61956115 22.03692445 26.64445177 2818 121 0 1.00000000 1.00000000 1.00000000
H 33.35562958 23.11370363 24.33094753 2819 121 0 1.00000000 1.00000000 1.00000000
H 34.26647890 21.74233685 23.59825565 2820 121 0 1.00000000 1.00000000 1.00000000
H 35.12186958 22.85986349 24.62218875 2821 121 0 1.00000000 1.00000000 1.00000000
C 8.25942909 33.00071496 8.45681738 2822 122 0 0.56500000 0.56500000 0.56500000
C 9.42841744 33.77583157 9.03711363 2823 122 0 0.56500000 0.56500000 0.56500000
C 9.13907414 35.27767268 8.85525024 2824 122 0 0.56500000 0.56500000 0.56500000
C 10.33251139 36.14557269 9.20351709 2825 122 0 0.56500000 0.56500000 0.56500000
C 9.89240420 37.50097027 9.76125269 2826 122 0 0.56500000 0.56500000 0.56500000
C 11.20228871 38.40739353 9.93938205 2827 122 0 0.56500000 0.56500000 0.56500000
C 11.26360189 39.48028458 8.82397648 2828 122 0 0.56500000 0.56500000 0.56500000
H 7.34849089 33.47040220 8.86254286 2829 122 0 1.00000000 1.00000000 1.00000000
H 8.26801851 31.93981992 8.60136458 2830 122 0 1.00000000 1.00000000 1.00000000
H 8.21249672 33.17765475 7.32591193 2831 122 0 1.00000000 1.00000000 1.00000000
H 10.35787645 33.49856451 8.53276414 2832 122 0 1.00000000 1.00000000 1.00000000
H 9.54833455 33.74649357 10.12255599 2833 122 0 1.00000000 1.00000000 1.00000000
H 8.34958828 35.52748509 9.50348491 2834 122 0 1.00000000 1.00000000 1.00000000
H 8.93799949 35.46470687 7.77809565 2835 122 0 1.00000000 1.00000000 1.00000000
H 10.81123619 36.35727595 8.24098566 2836 122 0 1.00000000 1.00000000 1.00000000
H 10.90522948 35.68686728 10.00029178 2837 122 0 1.00000000 1.00000000 1.00000000
H 9.31878598 37.49465842 10.70141338 2838 122 0 1.00000000 1.00000000 1.00000000
H 9.34188651 37.92666111 8.93929796 2839 122 0 1.00000000 1.00000000 1.00000000
H 12.16746402 37.81760158 9.87613164 2840 122 0 1.00000000 1.00000000 1.00000000
H 11.28132660 38.95462446 10.88147877 2841 122 0 1.00000000 1.00000000 1.00000000
H 12.01249201 40.27310323 8.99638990 2842 122 0 1.00000000 1.00000000 1.00000000
H 10.31924729 39.98795223 8.66887856 2843 122 0 1.00000000 1.00000000 1.00000000
H 11.39010773 38.95866420 7.88391145 2844 122 0 1.00000000 1.00000000 1.00000000
C 29.59091186 37.37000109 14.13925016 2845 123 0 0.56500000 0.56500000 0.56500000
C 30.39941690 36.07473107 13.87292920 2846 123 0 0.56500000 0.56500000 0.56500000
C 29.54794460 35.27948843 12.84750319 2847 123 0 0.56500000 0.56500000 0.56500000
C 30.08640849 33.93866805 12.30860445 2848 123 0 0.56500000 0.56500000 0.56500000
C 30.28177921 32.89839583 13.46735509 2849 123 0 0.56500000 0.56500000 0.56500000
C 30.81930333 31.53175207 12.92952044 2850 123 0 0.56500000 0.56500000 0.56500000
C 31.51859077 30.71043710 14.07209889 2851 123 0 0.56500000 0.56500000 0.56500000
H 28.80071700 37.05880219 14.85354373 2852 123 0 1.00000000 1.00000000 1.00000000
H 29.13580256 37.70165121 13.24397637 2853 123 0 1.00000000 1.00000000 1.00000000
H 30.16426307 38.24101967 14.52412311 2854 123 0 1.00000000 1.00000000 1.00000000
H 30.56862982 35.48263525 14.78922057 2855 123 0 1.00000000 1.00000000 1.00000000
H 31.42306066 36.26072126 13.50860311 2856 123 0 1.00000000 1.00000000 1.00000000
H 29.23380520 35.92187013 12.00517233 2857 123 0 1.00000000 1.00000000 1.00000000
H 28.59936289 35.19237636 13.32542901 2858 123 0 1.00000000 1.00000000 1.00000000
H 31.02035243 34.05916944 11.75443171 2859 123 0 1.00000000 1.00000000 1.00000000
H 29.38570382 33.57399416 11.57815320 2860 123 0 1.00000000 1.00000000 1.00000000
H 29.45447632 32.82195302 14.22239602 2861 123 0 1.00000000 1.00000000 1.00000000
H 31.13897893 33.17990677 14.10601843 2862 123 0 1.00000000 1.00000000 1.00000000
H 31.45312431 31.83205809 12.09178788 2863 123 0 1.00000000 1.00000000 1.00000000
H 30.08069412 30.79841152 12.49954277 2864 123 0 1.00000000 1.00000000 1.00000000
H 31.82296693 29.66596300 13.86194885 2865 123 0 1.00000000 1.00000000 1.00000000
H 30.68886078 30.69246283 14.83023665 2866 123 0 1.00000000 1.00000000 1.00000000
H 32.40550734 31.27567020 14.45330415 2867 123 0 1.00000000 1.00000000 1.00000000
C 12.65681290 29.00065214 23.34915722 2868 124 0 0.56500000 0.56500000 0.56500000
C 13.70971971 29.21809060 24.35926676 2869 124 0 0.56500000 0.56500000 0.56500000
C 13.37862453 30.24864262 25.41199555 2870 124 0 0.56500000 0.56500000 0.56500000
C 14.36339271 30.39587892 26.55800393 2871 124 0 0.56500000 0.56500000 0.56500000
C 14.02359897 31.57991907 27.36762048 2872 124 0 0.56500000 0.56500000 0.56500000
C 15.29580694 32.14389316 28.03211222 2873 124 0 0.56500000 0.56500000 0.56500000
C 15.08124383 32.83948052 29.40052748 2874 124 0 0.56500000 0.56500000 0.56500000
H 11.77819641 28.60450089 23.85676676 2875 124 0 1.00000000 1.00000000 1.00000000
H 12.91529552 28.23701815 22.57304347 2876 124 0 1.00000000 1.00000000 1.00000000
H 12.36019172 29.94005381 22.77758127 2877 124 0 1.00000000 1.00000000 1.00000000
H 14.68222486 29.49059418 23.84626531 2878 124 0 1.00000000 1.00000000 1.00000000
H 13.95774864 28.27342281 24.83195632 2879 124 0 1.00000000 1.00000000 1.00000000
H 12.34966416 30.14035379 25.82155843 2880 124 0 1.00000000 1.00000000 1.00000000
H 13.34650650 31.23691352 24.96193799 2881 124 0 1.00000000 1.00000000 1.00000000
H 15.39205673 30.37801455 26.14475154 2882 124 0 1.00000000 1.00000000 1.00000000
H 14.31428529 29.41996554 27.07517442 2883 124 0 1.00000000 1.00000000 1.00000000
H 13.44177615 31.20149091 28.20013474 2884 124 0 1.00000000 1.00000000 1.00000000
H 13.45818118 32.33984568 26.86422658 2885 124 0 1.00000000 1.00000000 1.00000000
H 15.81861643 32.87450307 27.35120513 2886 124 0 1.00000000 1.00000000 1.00000000
H 16.03000347 31.37171455 28.14253145 2887 124 0 1.00000000 1.00000000 1.00000000
H 16.04972230 33.00013376 29.88247558 2888 124 0 1.00000000 1.00000000 1.00000000
H 14.38763463 32.37079019 30.03888607 2889 124 0 1.00000000 1.00000000 1.00000000
H 14.77975141 33.86433539 29.25920828 2890 124 0 1.00000000 1.00000000 1.00000000
C 31.20158008 7.34917681 7.71353499 2891 125 0 0.56500000 0.56500000 0.56500000
C 30.26568086 8.49849227 7.89480788 2892 125 0 0.56500000 0.56500000 0.56500000
C 29.52030023 8.78104742 6.56306498 2893 125 0 0.56500000 0.56500000 0.56500000
C 28.53670434 9.94969286 6.54364340 2894 125 0 0.56500000 0.56500000 0.56500000
C 27.26285668 9.87123056 7.34398640 2895 125 0 0.56500000 0.56500000 0.56500000
C 26.33767915 11.15081643 7.15743652 2896 125 0 0.56500000 0.56500000 0.56500000
C 25.14225461 11.06296635 8.07831137 2897 125 0 0.56500000 0.56500000 0.56500000
H 30.67453075 6.32226757 7.48585323 2898 125 0 1.00000000 1.00000000 1.00000000
H 31.87448283 7.28622634 8.52176363 2899 125 0 1.00000000 1.00000000 1.00000000
H 31.76238988 7.53052884 6.78740102 2900 125 0 1.00000000 1.00000000 1.00000000
H 30.82418958 9.36349592 8.17381955 2901 125 0 1.00000000 1.00000000 1.00000000
H 29.48920212 8.47456028 8.66455402 2902 125 0 1.00000000 1.00000000 1.00000000
H 29.00499447 7.85845191 6.27615506 2903 125 0 1.00000000 1.00000000 1.00000000
H 30.25486480 8.93751728 5.79874587 2904 125 0 1.00000000 1.00000000 1.00000000
H 28.35710669 10.23753384 5.51744686 2905 125 0 1.00000000 1.00000000 1.00000000
H 29.12804074 10.75989427 6.99587572 2906 125 0 1.00000000 1.00000000 1.00000000
H 27.61329799 9.70297098 8.43132066 2907 125 0 1.00000000 1.00000000 1.00000000
H 26.73380751 9.00076635 7.11578188 2908 125 0 1.00000000 1.00000000 1.00000000
H 26.05739347 11.31180854 6.07931718 2909 125 0 1.00000000 1.00000000 1.00000000
H 27.02459095 11.95591589 7.46632069 2910 125 0 1.00000000 1.00000000 1.00000000
H 24.55357237 10.11903020 7.92165338 2911 125 0 1.00000000 1.00000000 1.00000000
H 24.50621654 11.92452259 7.98300848 2912 125 0 1.00000000 1.00000000 1.00000000
H 25.55090215 10.96347896 9.13560246 2913 125 0 1.00000000 1.00000000 1.00000000
C 2.62590170 38.77742813 27.36462717 2914 126 0 0.56500000 0.56500000 0.56500000
C 3.76583626 39.08219844 26.38509894 2915 126 0 0.56500000 0.56500000 0.56500000
C 3.48106381 40.42757896 25.65561139 2916 126 0 0.56500000 0.56500000 0.56500000
C 3.58950167 41.68502880 26.51311412 2917 126 0 0.56500000 0.56500000 0.56500000
C 3.95199520 42.95573380 25.58170522 2918 126 0 0.56500000 0.56500000 0.56500000
C 5.27662890 42.85971683 24.84635721 2919 126 0 0.56500000 0.56500000 0.56500000
C 5.79568574 44.21707448 24.33545987 2920 126 0 0.56500000 0.56500000 0.56500000
H 2.64435067 37.91835937 28.00709729 2921 126 0 1.00000000 1.00000000 1.00000000
H 1.69672564 38.56289686 26.87063669 2922 126 0 1.00000000 1.00000000 1.00000000
H 2.43922434 39.64452099 28.10172512 2923 126 0 1.00000000 1.00000000 1.00000000
H 4.13438793 38.37290943 25.64420658 2924 126 0 1.00000000 1.00000000 1.00000000
H 4.67271471 39.35360763 26.96755317 2925 126 0 1.00000000 1.00000000 1.00000000
H 2.55770310 40.43794168 25.10059930 2926 126 0 1.00000000 1.00000000 1.00000000
H 4.31341356 40.41974828 24.91189669 2927 126 0 1.00000000 1.00000000 1.00000000
H 4.30728917 41.58084055 27.31194207 2928 126 0 1.00000000 1.00000000 1.00000000
H 2.63109124 42.02114878 26.93981665 2929 126 0 1.00000000 1.00000000 1.00000000
H 3.95097041 43.71169257 26.37667409 2930 126 0 1.00000000 1.00000000 1.00000000
H 3.15845209 43.20508359 24.86286671 2931 126 0 1.00000000 1.00000000 1.00000000
H 5.10781831 42.29297216 23.87053329 2932 126 0 1.00000000 1.00000000 1.00000000
H 6.06971000 42.30390662 25.43162649 2933 126 0 1.00000000 1.00000000 1.00000000
H 5.13346130 44.59870671 23.56237794 2934 126 0 1.00000000 1.00000000 1.00000000
H 6.82003756 44.02735598 23.93702631 2935 126 0 1.00000000 1.00000000 1.00000000
H 5.81519594 44.87061798 25.18939097 2936 126 0 1.00000000 1.00000000 1.00000000
C -1.39036266 37.21422340 8.41981675 2937 127 0 0.56500000 0.56500000 0.56500000
C -0.91735102 38.61312117 8.11420952 2938 127 0 0.56500000 0.56500000 0.56500000
C -0.09810473 38.80948473 6.88165378 2939 127 0 0.56500000 0.56500000 0.56500000
C 0.39640205 40.28399050 6.74034990 2940 127 0 0.56500000 0.56500000 0.56500000
C 1.40313007 40.86239277 7.79552273 2941 127 0 0.56500000 0.56500000 0.56500000
C 2.17092577 42.03104965 7.32726888 2942 127 0 0.56500000 0.56500000 0.56500000
C 1.26666552 43.20715021 6.89845246 2943 127 0 0.56500000 0.56500000 0.56500000
H -0.67513557 36.61172665 8.84479370 2944 127 0 1.00000000 1.00000000 1.00000000
H -1.89442075 36.85587899 7.51750512 2945 127 0 1.00000000 1.00000000 1.00000000
H -2.13811785 37.27940474 9.21653637 2946 127 0 1.00000000 1.00000000 1.00000000
H -0.38019459 38.99931653 9.00681136 2947 127 0 1.00000000 1.00000000 1.00000000
H -1.77703443 39.30541446 8.05679207 2948 127 0 1.00000000 1.00000000 1.00000000
H -0.74688274 38.44961182 6.00698468 2949 127 0 1.00000000 1.00000000 1.00000000
H 0.84909831 38.06414010 6.87283391 2950 127 0 1.00000000 1.00000000 1.00000000
H -0.55235327 40.89143378 6.76436227 2951 127 0 1.00000000 1.00000000 1.00000000
H 0.78759677 40.40062663 5.78894222 2952 127 0 1.00000000 1.00000000 1.00000000
H 2.17391949 40.09220973 7.88758463 2953 127 0 1.00000000 1.00000000 1.00000000
H 0.86633918 41.00256312 8.72165072 2954 127 0 1.00000000 1.00000000 1.00000000
H 2.88760772 41.73205619 6.52015392 2955 127 0 1.00000000 1.00000000 1.00000000
H 2.83105707 42.43596313 8.07793182 2956 127 0 1.00000000 1.00000000 1.00000000
H 1.72750161 44.17231702 7.17908315 2957 127 0 1.00000000 1.00000000 1.00000000
H 0.30288161 43.21807108 7.45753294 2958 127 0 1.00000000 1.00000000 1.00000000
H 1.02065183 43.27645832 5.79975070 2959 127 0 1.00000000 1.00000000 1.00000000
C 7.58762067 21.87369754 24.31245967 2960 128 0 0.56500000 0.56500000 0.56500000
C 8.82962062 21.45145648 25.06059405 2961 128 0 0.56500000 0.56500000 0.56500000
C 9.09002968 22.42949626 26.24084829 2962 128 0 0.56500000 0.56500000 0.56500000
C 8.28205013 22.18542575 27.51756564 2963 128 0 0.56500000 0.56500000 0.56500000
C 8.78049005 23.18260504 28.59994619 2964 128 0 0.56500000 0.56500000 0.56500000
C 9.93400971 22.56793829 29.50521417 2965 128 0 0.56500000 0.56500000 0.56500000
C 10.55812391 23.67020368 30.37904068 2966 128 0 0.56500000 0.56500000 0.56500000
H 7.34443250 21.12405319 23.51521697 2967 128 0 1.00000000 1.00000000 1.00000000
H 7.68702775 22.86082996 23.86050346 2968 128 0 1.00000000 1.00000000 1.00000000
H 6.73779506 22.06236508 24.98002816 2969 128 0 1.00000000 1.00000000 1.00000000
H 9.63656208 21.32297585 24.38418582 2970 128 0 1.00000000 1.00000000 1.00000000
H 8.62595373 20.46748508 25.54731700 2971 128 0 1.00000000 1.00000000 1.00000000
H 9.00734201 23.46666221 25.87575735 2972 128 0 1.00000000 1.00000000 1.00000000
H 10.15650658 22.25607339 26.47287121 2973 128 0 1.00000000 1.00000000 1.00000000
H 8.41349478 21.13431446 27.90722126 2974 128 0 1.00000000 1.00000000 1.00000000
H 7.15508941 22.17210920 27.40356988 2975 128 0 1.00000000 1.00000000 1.00000000
H 7.89719829 23.46371989 29.27351614 2976 128 0 1.00000000 1.00000000 1.00000000
H 9.14805834 24.11245359 28.16768503 2977 128 0 1.00000000 1.00000000 1.00000000
H 10.66465242 21.96340856 28.86824432 2978 128 0 1.00000000 1.00000000 1.00000000
H 9.47151420 21.83095490 30.24797119 2979 128 0 1.00000000 1.00000000 1.00000000
H 11.35348972 24.38289481 29.93859148 2980 128 0 1.00000000 1.00000000 1.00000000
H 11.08022479 23.18442021 31.23446219 2981 128 0 1.00000000 1.00000000 1.00000000
H 9.71351606 24.15609472 30.83610127 2982 128 0 1.00000000 1.00000000 1.00000000
C 39.27139549 22.62452012 0.84006377 2983 129 0 0.56500000 0.56500000 0.56500000
C 39.73947300 22.16416645 2.17741898 2984 129 0 0.56500000 0.56500000 0.56500000
C 38.58302146 22.11873553 3.22000407 2985 129 0 0.56500000 0.56500000 0.56500000
C 39.00662038 21.69670710 4.67554741 2986 129 0 0.56500000 0.56500000 0.56500000
C 39.90757377 22.63703935 5.40480640 2987 129 0 0.56500000 0.56500000 0.56500000
C 40.15957366 22.15494018 6.84538926 2988 129 0 0.56500000 0.56500000 0.56500000
C 40.82329441 23.13572649 7.83888057 2989 129 0 0.56500000 0.56500000 0.56500000
H 38.14958024 22.45083553 0.72661510 2990 129 0 1.00000000 1.00000000 1.00000000
H 39.87306289 22.14952959 0.05306782 2991 129 0 1.00000000 1.00000000 1.00000000
H 39.45967932 23.64225147 0.72892753 2992 129 0 1.00000000 1.00000000 1.00000000
H 40.51154091 22.79339560 2.53515067 2993 129 0 1.00000000 1.00000000 1.00000000
H 40.16731924 21.19818770 2.19257379 2994 129 0 1.00000000 1.00000000 1.00000000
H 37.80323967 21.46707948 2.80748963 2995 129 0 1.00000000 1.00000000 1.00000000
H 38.17224838 23.10083924 3.36981231 2996 129 0 1.00000000 1.00000000 1.00000000
H 39.52484027 20.77562810 4.64118946 2997 129 0 1.00000000 1.00000000 1.00000000
H 38.07788483 21.41429075 5.21839979 2998 129 0 1.00000000 1.00000000 1.00000000
H 39.43855681 23.61471233 5.40905568 2999 129 0 1.00000000 1.00000000 1.00000000
H 40.86166884 22.75353722 4.85724898 3000 129 0 1.00000000 1.00000000 1.00000000
H 40.82767435 21.30391487 6.74250164 3001 129 0 1.00000000 1.00000000 1.00000000
H 39.19518575 21.84893442 7.27252617 3002 129 0 1.00000000 1.00000000 1.00000000
H 40.01830266 23.80529300 8.17444220 3003 129 0 1.00000000 1.00000000 1.00000000
H 41.64390861 23.81750505 7.36701289 3004 129 0 1.00000000 1.00000000 1.00000000
H 41.14464398 22.63000446 8.73470510 3005 129 0 1.00000000 1.00000000 1.00000000
C 41.97430295 19.13189604 -1.91059940 3006 130 0 0.56500000 0.56500000 0.56500000
C 43.24081289 18.43905750 -1.36724272 3007 130 0 0.56500000 0.56500000 0.56500000
C 43.02752536 17.53560093 -0.16657285 3008 130 0 0.56500000 0.56500000 0.56500000
C 42.22790180 18.26542226 0.97718062 3009 130 0 0.56500000 0.56500000 0.56500000
C 43.07329016 19.24810802 1.86362504 3010 130 0 0.56500000 0.56500000 0.56500000
C 43.36133533 20.60436684 1.21709865 3011 130 0 0.56500000 0.56500000 0.56500000
C 44.18134803 21.56298753 2.10241597 3012 130 0 0.56500000 0.56500000 0.56500000
H 41.07461935 18.54757294 -1.81977950 3013 130 0 1.00000000 1.00000000 1.00000000
H 42.14910722 19.38511691 -2.95858759 3014 130 0 1.00000000 1.00000000 1.00000000
H 41.85749891 20.12493474 -1.47286204 3015 130 0 1.00000000 1.00000000 1.00000000
H 43.96462353 19.17372801 -1.09274070 3016 130 0 1.00000000 1.00000000 1.00000000
H 43.68567542 17.86945955 -2.26046538 3017 130 0 1.00000000 1.00000000 1.00000000
H 43.99220878 17.31237602 0.18755094 3018 130 0 1.00000000 1.00000000 1.00000000
H 42.53970893 16.54430542 -0.29160011 3019 130 0 1.00000000 1.00000000 1.00000000
H 41.86805681 17.48772585 1.60013550 3020 130 0 1.00000000 1.00000000 1.00000000
H 41.28845374 18.74562122 0.60622460 3021 130 0 1.00000000 1.00000000 1.00000000
H 44.08936471 18.80072889 2.06161289 3022 130 0 1.00000000 1.00000000 1.00000000
H 42.51266855 19.51745892 2.76822655 3023 130 0 1.00000000 1.00000000 1.00000000
H 42.38590810 21.14122206 1.07402914 3024 130 0 1.00000000 1.00000000 1.00000000
H 43.79547489 20.40110912 0.25214057 3025 130 0 1.00000000 1.00000000 1.00000000
H 43.89535433 21.41454580 3.11744913 3026 130 0 1.00000000 1.00000000 1.00000000
H 44.10618420 22.65500238 1.98808216 3027 130 0 1.00000000 1.00000000 1.00000000
H 45.26698076 21.41523793 1.98176114 3028 130 0 1.00000000 1.00000000 1.00000000
C 29.40525624 24.34392580 23.94446574 3029 131 0 0.56500000 0.56500000 0.56500000
C 29.95497848 24.47439360 25.34376767 3030 131 0 0.56500000 0.56500000 0.56500000
C 28.84122911 24.82684249 26.35122437 3031 131 0 0.56500000 0.56500000 0.56500000
C 27.65689798 23.92936443 26.28505004 3032 131 0 0.56500000 0.56500000 0.56500000
C 27.86115398 22.45963486 26.75553493 3033 131 0 0.56500000 0.56500000 0.56500000
C 27.82256124 22.26230488 28.27757111 3034 131 0 0.56500000 0.56500000 0.56500000
C 26.55929644 22.68340219 29.01937306 3035 131 0 0.56500000 0.56500000 0.56500000
H 28.83224980 25.22909620 23.76283691 3036 131 0 1.00000000 1.00000000 1.00000000
H 28.76705042 23.49100786 23.83209347 3037 131 0 1.00000000 1.00000000 1.00000000
H 30.17168934 24.18755115 23.12924369 3038 131 0 1.00000000 1.00000000 1.00000000
H 30.74365309 25.24318312 25.42342060 3039 131 0 1.00000000 1.00000000 1.00000000
H 30.41499200 23.48387338 25.62216735 3040 131 0 1.00000000 1.00000000 1.00000000
H 28.59555616 25.90873466 26.19885668 3041 131 0 1.00000000 1.00000000 1.00000000
H 29.33407418 24.76047008 27.35941441 3042 131 0 1.00000000 1.00000000 1.00000000
H 27.24525818 23.91743507 25.30126047 3043 131 0 1.00000000 1.00000000 1.00000000
H 26.82222477 24.30621382 26.94135768 3044 131 0 1.00000000 1.00000000 1.00000000
H 28.83059678 22.04331887 26.42716123 3045 131 0 1.00000000 1.00000000 1.00000000
H 27.06447032 21.90499227 26.29222072 3046 131 0 1.00000000 1.00000000 1.00000000
H 28.62055489 22.75189580 28.75071897 3047 131 0 1.00000000 1.00000000 1.00000000
H 27.91328482 21.19633920 28.43838678 3048 131 0 1.00000000 1.00000000 1.00000000
H 26.72675542 22.53059778 30.12714268 3049 131 0 1.00000000 1.00000000 1.00000000
H 25.62149337 22.14366122 28.86470188 3050 131 0 1.00000000 1.00000000 1.00000000
H 26.43113548 23.75354478 29.06550092 3051 131 0 1.00000000 1.00000000 1.00000000
C 16.69562635 36.54424314 29.61967055 3052 132 0 0.56500000 0.56500000 0.56500000
C 16.14177727 37.56348811 28.64013657 3053 132 0 0.56500000 0.56500000 0.56500000
C 15.46775466 36.79287868 27.44590241 3054 132 0 0.56500000 0.56500000 0.56500000
C 15.18455812 37.65429172 26.19153692 3055 132 0 0.56500000 0.56500000 0.56500000
C 16.34559643 37.72540882 25.22739364 3056 132 0 0.56500000 0.56500000 0.56500000
C 16.10692121 38.85185931 24.14182933 3057 132 0 0.56500000 0.56500000 0.56500000
C 17.35690487 39.34624315 23.37535640 3058 132 0 0.56500000 0.56500000 0.56500000
H 15.97757564 35.74106908 29.71011869 3059 132 0 1.00000000 1.00000000 1.00000000
H 16.89880292 36.96618595 30.60510262 3060 132 0 1.00000000 1.00000000 1.00000000
H 17.59640344 36.02941833 29.27643367 3061 132 0 1.00000000 1.00000000 1.00000000
H 16.95200104 38.13474278 28.12948850 3062 132 0 1.00000000 1.00000000 1.00000000
H 15.40188446 38.26433362 29.09319257 3063 132 0 1.00000000 1.00000000 1.00000000
H 14.53533619 36.46762323 27.85564828 3064 132 0 1.00000000 1.00000000 1.00000000
H 15.96004233 35.85595919 27.14116508 3065 132 0 1.00000000 1.00000000 1.00000000
H 14.90972434 38.65248227 26.52132299 3066 132 0 1.00000000 1.00000000 1.00000000
H 14.31073604 37.27488711 25.67922092 3067 132 0 1.00000000 1.00000000 1.00000000
H 16.35953327 36.80591231 24.68166357 3068 132 0 1.00000000 1.00000000 1.00000000
H 17.32173962 37.79751897 25.82103733 3069 132 0 1.00000000 1.00000000 1.00000000
H 15.63193248 39.71805766 24.66430784 3070 132 0 1.00000000 1.00000000 1.00000000
H 15.32871374 38.61992473 23.40981184 3071 132 0 1.00000000 1.00000000 1.00000000
H 17.29433571 40.15123496 22.74723593 3072 132 0 1.00000000 1.00000000 1.00000000
H 17.80410372 38.55725151 22.74779295 3073 132 0 1.00000000 1.00000000 1.00000000
H 18.13181374 39.47494462 24.09405353 3074 132 0 1.00000000 1.00000000 1.00000000
C 45.63347687 8.04087517 -4.48535771 3075 133 0 0.56500000 0.56500000 0.56500000
C 45.22740230 7.86377168 -3.02377580 3076 133 0 0.56500000 0.56500000 0.56500000
C 44.29005692 6.65831272 -2.64561735 3077 133 0 0.56500000 0.56500000 0.56500000
C 44.26581194 6.50814361 -1.17137424 3078 133 0 0.56500000 0.56500000 0.56500000
C 43.52268415 7.64608893 -0.50388385 3079 133 0 0.56500000 0.56500000 0.56500000
C 43.26455601 7.29295593 1.02006935 3080 133 0 0.56500000 0.56500000 0.56500000
C 41.98868228 6.36874270 1.23327215 3081 133 0 0.56500000 0.56500000 0.56500000
H 46.36010434 8.82898383 -4.48466904 3082 133 0 1.00000000 1.00000000 1.00000000
H 44.81142644 8.37959933 -5.12375212 3083 133 0 1.00000000 1.00000000 1.00000000
H 45.99368203 7.13976628 -4.96546466 3084 133 0 1.00000000 1.00000000 1.00000000
H 44.72287955 8.75153281 -2.78260856 3085 133 0 1.00000000 1.00000000 1.00000000
H 46.15471305 7.76488067 -2.43415559 3086 133 0 1.00000000 1.00000000 1.00000000
H 44.68089300 5.76085216 -3.11171957 3087 133 0 1.00000000 1.00000000 1.00000000
H 43.27537647 6.87353911 -2.97240257 3088 133 0 1.00000000 1.00000000 1.00000000
H 45.31465725 6.36447950 -0.77722361 3089 133 0 1.00000000 1.00000000 1.00000000
H 43.72969523 5.53312759 -0.93845761 3090 133 0 1.00000000 1.00000000 1.00000000
H 42.50618887 7.77739514 -0.96171650 3091 133 0 1.00000000 1.00000000 1.00000000
H 44.05174207 8.58077338 -0.69007112 3092 133 0 1.00000000 1.00000000 1.00000000
H 43.33971724 8.17934378 1.67423771 3093 133 0 1.00000000 1.00000000 1.00000000
H 44.09000287 6.69698512 1.39294099 3094 133 0 1.00000000 1.00000000 1.00000000
H 42.21332081 5.43190108 0.66766101 3095 133 0 1.00000000 1.00000000 1.00000000
H 41.04616003 6.91829550 0.73496512 3096 133 0 1.00000000 1.00000000 1.00000000
H 41.75308945 6.30792546 2.30883301 3097 133 0 1.00000000 1.00000000 1.00000000
C 22.74752346 45.35018444 1.24301490 3098 134 0 0.56500000 0.56500000 0.56500000
C 22.44565487 46.81335047 0.86070117 3099 134 0 0.56500000 0.56500000 0.56500000
C 21.12217730 47.21854337 0.21504785 3100 134 0 0.56500000 0.56500000 0.56500000
C 20.75267890 46.45345347 -1.04383818 3101 134 0 0.56500000 0.56500000 0.56500000
C 19.81921416 45.31593151 -0.83965567 3102 134 0 0.56500000 0.56500000 0.56500000
C 19.47131302 44.44569304 -2.07419534 3103 134 0 0.56500000 0.56500000 0.56500000
C 18.58299671 43.34100964 -1.84759327 3104 134 0 0.56500000 0.56500000 0.56500000
H 22.32744967 44.60572267 0.56794289 3105 134 0 1.00000000 1.00000000 1.00000000
H 22.28878565 45.19250679 2.28911320 3106 134 0 1.00000000 1.00000000 1.00000000
H 23.76219602 45.12767904 1.43841504 3107 134 0 1.00000000 1.00000000 1.00000000
H 23.22088357 47.15193293 0.14417324 3108 134 0 1.00000000 1.00000000 1.00000000
H 22.49692914 47.38826114 1.82267442 3109 134 0 1.00000000 1.00000000 1.00000000
H 21.15869752 48.31404712 0.16527901 3110 134 0 1.00000000 1.00000000 1.00000000
H 20.33450124 47.08509966 1.00066652 3111 134 0 1.00000000 1.00000000 1.00000000
H 21.62361338 46.10727422 -1.63540073 3112 134 0 1.00000000 1.00000000 1.00000000
H 20.25185385 47.14972738 -1.78377859 3113 134 0 1.00000000 1.00000000 1.00000000
H 18.80345573 45.78284310 -0.48059678 3114 134 0 1.00000000 1.00000000 1.00000000
H 20.14749013 44.73805677 0.05066038 3115 134 0 1.00000000 1.00000000 1.00000000
H 20.42197986 44.04930701 -2.46534137 3116 134 0 1.00000000 1.00000000 1.00000000
H 19.12765180 45.15094796 -2.82073384 3117 134 0 1.00000000 1.00000000 1.00000000
H 17.64138895 43.54254260 -1.36134757 3118 134 0 1.00000000 1.00000000 1.00000000
H 19.21439916 42.58380131 -1.19510209 3119 134 0 1.00000000 1.00000000 1.00000000
H 18.37050531 42.78723307 -2.75330597 3120 134 0 1.00000000 1.00000000 1.00000000
C 6.08291075 40.80556990 38.92446593 3121 135 0 0.56500000 0.56500000 0.56500000
C 4.70659359 41.34276029 38.69762925 3122 135 0 0.56500000 0.56500000 0.56500000
C 3.77026590 40.48049952 37.89771565 3123 135 0 0.56500000 0.56500000 0.56500000
C 2.30023545 41.11042841 37.99165474 3124 135 0 0.56500000 0.56500000 0.56500000
C 2.21695982 42.54004010 37.48188484 3125 135 0 0.56500000 0.56500000 0.56500000
C 2.11969381 42.54506347 35.99465622 3126 135 0 0.56500000 0.56500000 0.56500000
C 1.93580763 43.91484680 35.29486899 3127 135 0 0.56500000 0.56500000 0.56500000
H 6.49569802 40.59481730 37.94893292 3128 135 0 1.00000000 1.00000000 1.00000000
H 6.10283706 39.83387301 39.39080666 3129 135 0 1.00000000 1.00000000 1.00000000
H 6.76514206 41.45784770 39.40401001 3130 135 0 1.00000000 1.00000000 1.00000000
H 4.83037816 42.32347079 38.13106356 3131 135 0 1.00000000 1.00000000 1.00000000
H 4.16584533 41.66899506 39.63800818 3132 135 0 1.00000000 1.00000000 1.00000000
H 3.83702280 39.45247505 38.32201029 3133 135 0 1.00000000 1.00000000 1.00000000
H 4.14409710 40.47710281 36.85590949 3134 135 0 1.00000000 1.00000000 1.00000000
H 2.07094410 41.06658869 39.04061675 3135 135 0 1.00000000 1.00000000 1.00000000
H 1.64455916 40.49253671 37.31653341 3136 135 0 1.00000000 1.00000000 1.00000000
H 2.98732239 43.19633642 37.88799840 3137 135 0 1.00000000 1.00000000 1.00000000
H 1.20980395 42.92550127 37.87303703 3138 135 0 1.00000000 1.00000000 1.00000000
H 1.27077872 41.86643820 35.76868809 3139 135 0 1.00000000 1.00000000 1.00000000
H 2.94628694 42.06062076 35.43273367 3140 135 0 1.00000000 1.00000000 1.00000000
H 2.84678490 44.54533642 35.21261618 3141 135 0 1.00000000 1.00000000 1.00000000
H 1.04644120 44.45436347 35.63835558 3142 135 0 1.00000000 1.00000000 1.00000000
H 1.75793104 43.70864372 34.21855594 3143 135 0 1.00000000 1.00000000 1.00000000
C 20.63852833 8.28618363 32.27376048 3144 136 0 0.56500000 0.56500000 0.56500000
C 19.50533716 9.20142765 31.77127560 3145 136 0 0.56500000 0.56500000 0.56500000
C 19.82484390 9.76175204 30.42902333 3146 136 0 0.56500000 0.56500000 0.56500000
C 19.90886100 8.65633847 29.36677443 3147 136 0 0.56500000 0.56500000 0.56500000
C 20.31087539 9.14314468 28.02097031 3148 136 0 0.56500000 0.56500000 0.56500000
C 21.52458879 10.00032175 27.91682390 3149 136 0 0.56500000 0.56500000 0.56500000
C 22.77852446 9.22115939 28.39993447 3150 136 0 0.56500000 0.56500000 0.56500000
H 21.59893085 8.82979126 32.27150847 3151 136 0 1.00000000 1.00000000 1.00000000
H 20.75768664 7.41110414 31.70960701 3152 136 0 1.00000000 1.00000000 1.00000000
H 20.45537096 7.82982920 33.23311345 3153 136 0 1.00000000 1.00000000 1.00000000
H 19.29531359 9.99401016 32.54667220 3154 136 0 1.00000000 1.00000000 1.00000000
H 18.59642365 8.64072949 31.72084585 3155 136 0 1.00000000 1.00000000 1.00000000
H 20.82635869 10.29597453 30.53504317 3156 136 0 1.00000000 1.00000000 1.00000000
H 19.07692266 10.52167098 30.09342621 3157 136 0 1.00000000 1.00000000 1.00000000
H 18.89440475 8.25125528 29.26492265 3158 136 0 1.00000000 1.00000000 1.00000000
H 20.51261275 7.82461451 29.67590301 3159 136 0 1.00000000 1.00000000 1.00000000
H 19.42302112 9.54138667 27.47742691 3160 136 0 1.00000000 1.00000000 1.00000000
H 20.59813290 8.21159863 27.52069133 3161 136 0 1.00000000 1.00000000 1.00000000
H 21.51707197 11.00283049 28.38240772 3162 136 0 1.00000000 1.00000000 1.00000000
H 21.83158009 10.29874603 26.88387920 3163 136 0 1.00000000 1.00000000 1.00000000
H 22.65017264 8.20588524 28.02098630 3164 136 0 1.00000000 1.00000000 1.00000000
H 23.02036328 9.20888290 29.48895214 3165 136 0 1.00000000 1.00000000 1.00000000
H 23.68150169 9.63239284 27.87527101 3166 136 0 1.00000000 1.00000000 1.00000000
C 14.96176634 29.69361146 -0.98754968 3167 137 0 0.56500000 0.56500000 0.56500000
C 15.32586303 28.52272856 -0.05880703 3168 137 0 0.56500000 0.56500000 0.56500000
C 14.48353718 27.31335124 -0.43445122 3169 137 0 0.56500000 0.56500000 0.56500000
C 14.53912132 26.23425868 0.63930131 3170 137 0 0.56500000 0.56500000 0.56500000
C 13.87506946 24.92325138 0.18049394 3171 137 0 0.56500000 0.56500000 0.56500000
C 14.65983977 23.68145564 0.58970972 3172 137 0 0.56500000 0.56500000 0.56500000
C 13.86520400 22.43754015 0.26750377 3173 137 0 0.56500000 0.56500000 0.56500000
H 15.08411936 29.54991017 -2.03782537 3174 137 0 1.00000000 1.00000000 1.00000000
H 15.55031617 30.62520553 -0.73793387 3175 137 0 1.00000000 1.00000000 1.00000000
H 13.88327452 29.95250240 -0.86205750 3176 137 0 1.00000000 1.00000000 1.00000000
H 15.19639996 28.76033878 0.98348857 3177 137 0 1.00000000 1.00000000 1.00000000
H 16.35577944 28.19291215 -0.11627425 3178 137 0 1.00000000 1.00000000 1.00000000
H 14.88810243 26.93394055 -1.36947930 3179 137 0 1.00000000 1.00000000 1.00000000
H 13.43085895 27.61960019 -0.64678080 3180 137 0 1.00000000 1.00000000 1.00000000
H 14.05597892 26.53070012 1.58959410 3181 137 0 1.00000000 1.00000000 1.00000000
H 15.60419669 26.09190956 0.94399069 3182 137 0 1.00000000 1.00000000 1.00000000
H 13.79153952 24.94432482 -0.92585605 3183 137 0 1.00000000 1.00000000 1.00000000
H 12.85952322 24.88821742 0.59735293 3184 137 0 1.00000000 1.00000000 1.00000000
H 14.78415060 23.73453324 1.74729758 3185 137 0 1.00000000 1.00000000 1.00000000
H 15.66492462 23.71825341 0.21712642 3186 137 0 1.00000000 1.00000000 1.00000000
H 14.39178153 21.54507192 0.42097318 3187 137 0 1.00000000 1.00000000 1.00000000
H 13.47793590 22.43967623 -0.78022959 3188 137 0 1.00000000 1.00000000 1.00000000
H 12.94949412 22.38195531 0.84447818 3189 137 0 1.00000000 1.00000000 1.00000000
C 36.11532559 9.45515936 18.34236828 3190 138 0 0.56500000 0.56500000 0.56500000
C 36.33103232 9.09668835 16.83528339 3191 138 0 0.56500000 0.56500000 0.56500000
C 35.40930292 8.02240736 16.30344940 3192 138 0 0.56500000 0.56500000 0.56500000
C 35.82903381 7.48249772 14.96547223 3193 138 0 0.56500000 0.56500000 0.56500000
C 35.26990280 6.13632918 14.72394358 3194 138 0 0.56500000 0.56500000 0.56500000
C 35.86019088 5.41019529 13.50450305 3195 138 0 0.56500000 0.56500000 0.56500000
C 35.00972758 4.13314680 13.11184509 3196 138 0 0.56500000 0.56500000 0.56500000
H 37.02264161 9.98750785 18.61236386 3197 138 0 1.00000000 1.00000000 1.00000000
H 36.00869741 8.54111230 18.90263006 3198 138 0 1.00000000 1.00000000 1.00000000
H 35.17327760 10.07042380 18.51476573 3199 138 0 1.00000000 1.00000000 1.00000000
H 37.36973888 8.79045274 16.67402022 3200 138 0 1.00000000 1.00000000 1.00000000
H 36.22974783 10.01731569 16.23788905 3201 138 0 1.00000000 1.00000000 1.00000000
H 34.39963040 8.44472285 16.00982396 3202 138 0 1.00000000 1.00000000 1.00000000
H 35.28702822 7.16947298 17.00876705 3203 138 0 1.00000000 1.00000000 1.00000000
H 36.92976859 7.50201949 15.02852282 3204 138 0 1.00000000 1.00000000 1.00000000
H 35.55047890 8.15864385 14.19059553 3205 138 0 1.00000000 1.00000000 1.00000000
H 34.17115309 6.08939299 14.64468806 3206 138 0 1.00000000 1.00000000 1.00000000
H 35.42730714 5.53747743 15.56305048 3207 138 0 1.00000000 1.00000000 1.00000000
H 36.80999285 4.96454423 13.68031822 3208 138 0 1.00000000 1.00000000 1.00000000
H 36.05313459 6.05312852 12.64444385 3209 138 0 1.00000000 1.00000000 1.00000000
H 35.33356785 3.46363707 12.25928968 3210 138 0 1.00000000 1.00000000 1.00000000
H 33.95704981 4.41598211 13.01830180 3211 138 0 1.00000000 1.00000000 1.00000000
H 35.06449058 3.40804349 13.88095607 3212 138 0 1.00000000 1.00000000 1.00000000
C 46.03176831 18.52900546 13.05516913 3213 139 0 0.56500000 0.56500000 0.56500000
C 45.55308161 18.01720946 14.43614290 3214 139 0 0.56500000 0.56500000 0.56500000
C 44.13491459 17.47210698 14.38097438 3215 139 0 0.56500000 0.56500000 0.56500000
C 43.67565854 17.16218712 15.73782337 3216 139 0 0.56500000 0.56500000 0.56500000
C 42.21265181 16.64601556 15.73511824 3217 139 0 0.56500000 0.56500000 0.56500000
C 41.71530910 16.16906569 17.07383896 3218 139 0 0.56500000 0.56500000 0.56500000
C 40.33737905 15.41831033 17.06012675 3219 139 0 0.56500000 0.56500000 0.56500000
H 45.55020673 19.47929595 12.82960255 3220 139 0 1.00000000 1.00000000 1.00000000
H 45.76644802 17.80692444 12.25835402 3221 139 0 1.00000000 1.00000000 1.00000000
H 47.11636700 18.63725006 13.14314612 3222 139 0 1.00000000 1.00000000 1.00000000
H 45.56316959 18.73892490 15.27928867 3223 139 0 1.00000000 1.00000000 1.00000000
H 46.23151969 17.12481601 14.68287098 3224 139 0 1.00000000 1.00000000 1.00000000
H 44.08718971 16.52945725 13.79042935 3225 139 0 1.00000000 1.00000000 1.00000000
H 43.43582951 18.26914076 13.99694072 3226 139 0 1.00000000 1.00000000 1.00000000
H 43.67954712 18.09641069 16.34162158 3227 139 0 1.00000000 1.00000000 1.00000000
H 44.37449555 16.45234759 16.11402954 3228 139 0 1.00000000 1.00000000 1.00000000
H 42.23823857 15.73039743 15.06977293 3229 139 0 1.00000000 1.00000000 1.00000000
H 41.46196952 17.31212768 15.26239814 3230 139 0 1.00000000 1.00000000 1.00000000
H 41.63321604 17.05894550 17.80749682 3231 139 0 1.00000000 1.00000000 1.00000000
H 42.48375694 15.46339477 17.47059781 3232 139 0 1.00000000 1.00000000 1.00000000
H 39.48241233 16.07029116 17.20911689 3233 139 0 1.00000000 1.00000000 1.00000000
H 40.34904401 14.76559239 17.89761875 3234 139 0 1.00000000 1.00000000 1.00000000
H 40.30024156 14.72293102 16.21307048 3235 139 0 1.00000000 1.00000000 1.00000000
C 20.78642993 41.06576036 23.85794221 3236 140 0 0.56500000 0.56500000 0.56500000
C 20.83236129 42.51978623 24.30437522 3237 140 0 0.56500000 0.56500000 0.56500000
C 19.66762391 43.11341005 25.14311691 3238 140 0 0.56500000 0.56500000 0.56500000
C 20.20609121 44.27247478 25.95379060 3239 140 0 0.56500000 0.56500000 0.56500000
C 19.12800205 45.16614069 26.58003564 3240 140 0 0.56500000 0.56500000 0.56500000
C 18.38475382 46.01020455 25.58832274 3241 140 0 0.56500000 0.56500000 0.56500000
C 19.22192186 47.11183503 24.98542772 3242 140 0 0.56500000 0.56500000 0.56500000
H 20.85335771 40.33702067 24.66082098 3243 140 0 1.00000000 1.00000000 1.00000000
H 21.58479195 41.00451081 23.12978707 3244 140 0 1.00000000 1.00000000 1.00000000
H 19.89002047 40.78218815 23.26507450 3245 140 0 1.00000000 1.00000000 1.00000000
H 20.96304818 43.18540145 23.41395942 3246 140 0 1.00000000 1.00000000 1.00000000
H 21.68463281 42.50654556 24.94511093 3247 140 0 1.00000000 1.00000000 1.00000000
H 19.23170108 42.37446571 25.85448432 3248 140 0 1.00000000 1.00000000 1.00000000
H 18.76816966 43.36172932 24.59546640 3249 140 0 1.00000000 1.00000000 1.00000000
H 20.78775750 45.00219708 25.37008421 3250 140 0 1.00000000 1.00000000 1.00000000
H 20.85767034 43.88267845 26.70166339 3251 140 0 1.00000000 1.00000000 1.00000000
H 19.58775904 45.82484161 27.33230665 3252 140 0 1.00000000 1.00000000 1.00000000
H 18.51867105 44.54248305 27.11781772 3253 140 0 1.00000000 1.00000000 1.00000000
H 17.44424323 46.39546327 26.03457897 3254 140 0 1.00000000 1.00000000 1.00000000
H 17.90952916 45.44196844 24.80578249 3255 140 0 1.00000000 1.00000000 1.00000000
H 19.81141442 47.66788487 25.67161289 3256 140 0 1.00000000 1.00000000 1.00000000
H 18.58701418 47.90507760 24.49211838 3257 140 0 1.00000000 1.00000000 1.00000000
H 19.94080499 46.75084324 24.23834774 3258 140 0 1.00000000 1.00000000 1.00000000
C 2.94626711 26.05496435 -0.25214641 3259 141 0 0.56500000 0.56500000 0.56500000
C 3.52617634 25.95860864 1.17794240 3260 141 0 0.56500000 0.56500000 0.56500000
C 3.00512004 27.16461539 2.00218427 3261 141 0 0.56500000 0.56500000 0.56500000
C 1.46205347 27.49392183 2.01182889 3262 141 0 0.56500000 0.56500000 0.56500000
C 0.96260370 28.41717644 3.09056720 3263 141 0 0.56500000 0.56500000 0.56500000
C -0.55421604 28.47106961 2.97479067 3264 141 0 0.56500000 0.56500000 0.56500000
C -1.20790239 29.21462325 4.17432685 3265 141 0 0.56500000 0.56500000 0.56500000
H 3.09310620 27.02544597 -0.74203465 3266 141 0 1.00000000 1.00000000 1.00000000
H 1.89169091 25.74818336 -0.31581633 3267 141 0 1.00000000 1.00000000 1.00000000
H 3.44877728 25.41852935 -0.95370301 3268 141 0 1.00000000 1.00000000 1.00000000
H 4.59862366 25.90150347 1.21590995 3269 141 0 1.00000000 1.00000000 1.00000000
H 3.20750814 25.01146422 1.65796779 3270 141 0 1.00000000 1.00000000 1.00000000
H 3.55439435 28.09652132 1.69396546 3271 141 0 1.00000000 1.00000000 1.00000000
H 3.40231648 27.03727470 3.01117676 3272 141 0 1.00000000 1.00000000 1.00000000
H 1.01798532 26.42550180 2.14609557 3273 141 0 1.00000000 1.00000000 1.00000000
H 1.16813415 27.93113526 1.02505804 3274 141 0 1.00000000 1.00000000 1.00000000
H 1.41118870 29.42290054 3.05584916 3275 141 0 1.00000000 1.00000000 1.00000000
H 1.16543780 27.95296039 4.12527123 3276 141 0 1.00000000 1.00000000 1.00000000
H -0.97321176 27.50886245 3.05113079 3277 141 0 1.00000000 1.00000000 1.00000000
H -0.80401634 29.02098993 2.05608121 3278 141 0 1.00000000 1.00000000 1.00000000
H -2.28643031 29.11160120 4.16781243 3279 141 0 1.00000000 1.00000000 1.00000000
H -0.99733432 30.28714583 4.29773688 3280 141 0 1.00000000 1.00000000 1.00000000
H -0.94500567 28.72579822 5.09397263 3281 141 0 1.00000000 1.00000000 1.00000000
C 7.18288577 24.35963722 9.30109756 3282 142 0 0.56500000 0.56500000 0.56500000
C 7.84439629 23.94820460 10.60407726 3283 142 0 0.56500000 0.56500000 0.56500000
C 7.09216349 22.66012010 11.18528140 3284 142 0 0.56500000 0.56500000 0.56500000
C 7.70913297 22.26225192 12.47338470 3285 142 0 0.56500000 0.56500000 0.56500000
C 9.07172975 21.54898362 12.40311068 3286 142 0 0.56500000 0.56500000 0.56500000
C 9.49639171 20.76850174 13.63654826 3287 142 0 0.56500000 0.56500000 0.56500000
C 11.00202298 20.43214744 13.43510448 3288 142 0 0.56500000 0.56500000 0.56500000
H 7.66773844 25.19307769 8.78029823 3289 142 0 1.00000000 1.00000000 1.00000000
H 6.09782358 24.52367649 9.39581403 3290 142 0 1.00000000 1.00000000 1.00000000
H 7.17746702 23.47807449 8.59830339 3291 142 0 1.00000000 1.00000000 1.00000000
H 7.70198946 24.79744532 11.26296160 3292 142 0 1.00000000 1.00000000 1.00000000
H 8.93208392 23.82612943 10.49048518 3293 142 0 1.00000000 1.00000000 1.00000000
H 7.09773139 21.90991829 10.41476412 3294 142 0 1.00000000 1.00000000 1.00000000
H 6.01414768 22.89830912 11.29356664 3295 142 0 1.00000000 1.00000000 1.00000000
H 7.01959489 21.63376188 13.07949256 3296 142 0 1.00000000 1.00000000 1.00000000
H 7.95050158 23.15692215 13.10168653 3297 142 0 1.00000000 1.00000000 1.00000000
H 9.91317726 22.24466744 12.25170066 3298 142 0 1.00000000 1.00000000 1.00000000
H 9.11679271 20.82573620 11.57685518 3299 142 0 1.00000000 1.00000000 1.00000000
H 8.92964403 19.90860355 13.79966266 3300 142 0 1.00000000 1.00000000 1.00000000
H 9.44189980 21.35681593 14.54076034 3301 142 0 1.00000000 1.00000000 1.00000000
H 11.40157040 20.11703073 14.37007579 3302 142 0 1.00000000 1.00000000 1.00000000
H 11.48961445 21.34020601 13.06697134 3303 142 0 1.00000000 1.00000000 1.00000000
H 10.90036907 19.66076856 12.71592505 3304 142 0 1.00000000 1.00000000 1.00000000
C 2.25345814 45.24182091 19.71103097 3305 143 0 0.56500000 0.56500000 0.56500000
C 1.93224618 44.09319169 20.69785045 3306 143 0 0.56500000 0.56500000 0.56500000
C 0.46860088 43.92489669 21.03745222 3307 143 0 0.56500000 0.56500000 0.56500000
C -0.10734932 44.83152369 22.11913330 3308 143 0 0.56500000 0.56500000 0.56500000
C -1.63479443 44.97753052 22.28400202 3309 143 0 0.56500000 0.56500000 0.56500000
C -2.01544017 46.02349692 23.29592013 3310 143 0 0.56500000 0.56500000 0.56500000
C -3.52962897 46.23216877 23.44998196 3311 143 0 0.56500000 0.56500000 0.56500000
H 1.92071131 46.20632198 20.08262847 3312 143 0 1.00000000 1.00000000 1.00000000
H 1.71008564 45.07776086 18.76059890 3313 143 0 1.00000000 1.00000000 1.00000000
H 3.36412128 45.34089397 19.36958882 3314 143 0 1.00000000 1.00000000 1.00000000
H 2.42260332 44.32611388 21.67463729 3315 143 0 1.00000000 1.00000000 1.00000000
H 2.33347710 43.08782858 20.37368155 3316 143 0 1.00000000 1.00000000 1.00000000
H 0.35234202 42.93945542 21.50436860 3317 143 0 1.00000000 1.00000000 1.00000000
H -0.07621056 44.01533432 20.09895382 3318 143 0 1.00000000 1.00000000 1.00000000
H 0.24303695 45.94932565 21.93155045 3319 143 0 1.00000000 1.00000000 1.00000000
H 0.39517373 44.55597537 23.05718764 3320 143 0 1.00000000 1.00000000 1.00000000
H -2.19147881 44.05156014 22.42358793 3321 143 0 1.00000000 1.00000000 1.00000000
H -1.89973905 45.38481427 21.29697424 3322 143 0 1.00000000 1.00000000 1.00000000
H -1.52738042 46.93105452 22.93600242 3323 143 0 1.00000000 1.00000000 1.00000000
H -1.63693411 45.85017072 24.30825489 3324 143 0 1.00000000 1.00000000 1.00000000
H -3.89353026 45.34793093 24.04099503 3325 143 0 1.00000000 1.00000000 1.00000000
H -4.10633452 46.38788420 22.57153297 3326 143 0 1.00000000 1.00000000 1.00000000
H -3.74014354 47.11179186 24.10396428 3327 143 0 1.00000000 1.00000000 1.00000000
C 47.51174312 3.67211662 26.73308846 3328 144 0 0.56500000 0.56500000 0.56500000
C 47.43465615 4.80880419 25.67857122 3329 144 0 0.56500000 0.56500000 0.56500000
C 47.86624321 6.19296011 26.21094765 3330 144 0 0.56500000 0.56500000 0.56500000
C 47.83832610 7.30370958 25.15717650 3331 144 0 0.56500000 0.56500000 0.56500000
C 48.19566794 8.67047220 25.68744108 3332 144 0 0.56500000 0.56500000 0.56500000
C 48.29590869 9.73591790 24.63827041 3333 144 0 0.56500000 0.56500000 0.56500000
C 48.79042025 11.04726689 25.05200926 3334 144 0 0.56500000 0.56500000 0.56500000
H 47.44292862 2.72288911 26.26032234 3335 144 0 1.00000000 1.00000000 1.00000000
H 46.74260897 3.69926868 27.50293987 3336 144 0 1.00000000 1.00000000 1.00000000
H 48.47342904 3.73817126 27.25584685 3337 144 0 1.00000000 1.00000000 1.00000000
H 46.40417592 4.88087451 25.33246148 3338 144 0 1.00000000 1.00000000 1.00000000
H 48.14283377 4.52697985 24.88491194 3339 144 0 1.00000000 1.00000000 1.00000000
H 48.95427209 6.13142129 26.59858719 3340 144 0 1.00000000 1.00000000 1.00000000
H 47.26810793 6.67929681 26.99041615 3341 144 0 1.00000000 1.00000000 1.00000000
H 46.88757245 7.42553273 24.72434566 3342 144 0 1.00000000 1.00000000 1.00000000
H 48.43341392 7.01282298 24.29668404 3343 144 0 1.00000000 1.00000000 1.00000000
H 49.07024123 8.66098907 26.37132252 3344 144 0 1.00000000 1.00000000 1.00000000
H 47.23405741 8.82216284 26.27476240 3345 144 0 1.00000000 1.00000000 1.00000000
H 47.33836922 9.84639634 24.16929665 3346 144 0 1.00000000 1.00000000 1.00000000
H 49.04470819 9.30665895 23.93221551 3347 144 0 1.00000000 1.00000000 1.00000000
H 48.84947813 11.69091780 24.18496211 3348 144 0 1.00000000 1.00000000 1.00000000
H 49.76145830 11.00598135 25.52524102 3349 144 0 1.00000000 1.00000000 1.00000000
H 48.03552557 11.47178039 25.74340675 3350 144 0 1.00000000 1.00000000 1.00000000
C 34.18749715 37.63555945 9.50772062 3351 145 0 0.56500000 0.56500000 0.56500000
C 32.90726296 38.46756530 9.63569826 3352 145 0 0.56500000 0.56500000 0.56500000
C 31.86284450 38.06574126 10.64835386 3353 145 0 0.56500000 0.56500000 0.56500000
C 30.52452171 38.91962563 10.41935918 3354 145 0 0.56500000 0.56500000 0.56500000
C 30.68095518 40.40252989 10.32483649 3355 145 0 0.56500000 0.56500000 0.56500000
C 30.65379011 41.16404796 11.66645687 3356 145 0 0.56500000 0.56500000 0.56500000
C 31.59747294 40.76685148 12.83288863 3357 145 0 0.56500000 0.56500000 0.56500000
H 34.53514474 37.84074529 8.49564588 3358 145 0 1.00000000 1.00000000 1.00000000
H 33.96536768 36.55915859 9.53218297 3359 145 0 1.00000000 1.00000000 1.00000000
H 34.86201036 37.86903757 10.32927475 3360 145 0 1.00000000 1.00000000 1.00000000
H 32.49065071 38.39568647 8.68819442 3361 145 0 1.00000000 1.00000000 1.00000000
H 33.23828693 39.53624162 9.77212632 3362 145 0 1.00000000 1.00000000 1.00000000
H 32.13604629 38.23673042 11.72981007 3363 145 0 1.00000000 1.00000000 1.00000000
H 31.55074490 36.99730700 10.50374747 3364 145 0 1.00000000 1.00000000 1.00000000
H 29.99714871 38.77905188 11.33710146 3365 145 0 1.00000000 1.00000000 1.00000000
H 30.04074310 38.51446711 9.55403275 3366 145 0 1.00000000 1.00000000 1.00000000
H 29.88198491 40.71507229 9.68811803 3367 145 0 1.00000000 1.00000000 1.00000000
H 31.64289930 40.65620841 9.83111639 3368 145 0 1.00000000 1.00000000 1.00000000
H 29.61941546 41.07655518 12.01564461 3369 145 0 1.00000000 1.00000000 1.00000000
H 30.75483415 42.20548111 11.41705576 3370 145 0 1.00000000 1.00000000 1.00000000
H 32.59454765 41.07380592 12.59389764 3371 145 0 1.00000000 1.00000000 1.00000000
H 31.69515759 39.71514807 12.94794414 3372 145 0 1.00000000 1.00000000 1.00000000
H 31.23075056 41.24711535 13.73938677 3373 145 0 1.00000000 1.00000000 1.00000000
C 7.50982409 30.67942679 17.81006299 3374 146 0 0.56500000 0.56500000 0.56500000
C 8.25141780 29.62694150 16.99584512 3375 146 0 0.56500000 0.56500000 0.56500000
C 7.72394509 28.22416547 17.12420479 3376 146 0 0.56500000 0.56500000 0.56500000
C 6.27823964 27.87853998 16.76549915 3377 146 0 0.56500000 0.56500000 0.56500000
C 6.00722691 26.39278669 16.71336977 3378 146 0 0.56500000 0.56500000 0.56500000
C 6.81751862 25.57087957 15.66587841 3379 146 0 0.56500000 0.56500000 0.56500000
C 6.92516183 26.15228870 14.24205237 3380 146 0 0.56500000 0.56500000 0.56500000
H 6.41331505 30.84460482 17.66903010 3381 146 0 1.00000000 1.00000000 1.00000000
H 8.14046733 31.56617072 17.71212249 3382 146 0 1.00000000 1.00000000 1.00000000
H 7.62035688 30.41723715 18.90860233 3383 146 0 1.00000000 1.00000000 1.00000000
H 9.32871111 29.49929158 17.35116211 3384 146 0 1.00000000 1.00000000 1.00000000
H 8.36948167 30.00308261 15.96823898 3385 146 0 1.00000000 1.00000000 1.00000000
H 7.86299231 27.93510254 18.16590937 3386 146 0 1.00000000 1.00000000 1.00000000
H 8.39159768 27.62393216 16.40650262 3387 146 0 1.00000000 1.00000000 1.00000000
H 6.10842776 28.31671761 15.81804639 3388 146 0 1.00000000 1.00000000 1.00000000
H 5.58148218 28.38521918 17.46605127 3389 146 0 1.00000000 1.00000000 1.00000000
H 4.89005109 26.30499307 16.54819802 3390 146 0 1.00000000 1.00000000 1.00000000
H 6.21442795 25.88256722 17.61553997 3391 146 0 1.00000000 1.00000000 1.00000000
H 6.39358189 24.60012645 15.67953579 3392 146 0 1.00000000 1.00000000 1.00000000
H 7.85159564 25.49434641 16.06441085 3393 146 0 1.00000000 1.00000000 1.00000000
H 7.33121088 27.22334640 14.17493122 3394 146 0 1.00000000 1.00000000 1.00000000
H 5.91792097 26.30915783 13.82213977 3395 146 0 1.00000000 1.00000000 1.00000000
H 7.55125860 25.57464346 13.57362428 3396 146 0 1.00000000 1.00000000 1.00000000
C 17.56258252 31.99675335 1.18724233 3397 147 0 0.56500000 0.56500000 0.56500000
C 16.78162891 33.33151573 1.38411210 3398 147 0 0.56500000 0.56500000 0.56500000
C 17.53952528 34.44034607 2.12944111 3399 147 0 0.56500000 0.56500000 0.56500000
C 17.91242013 34.29204771 3.61450305 3400 147 0 0.56500000 0.56500000 0.56500000
C 18.44349228 35.67744798 4.27748508 3401 147 0 0.56500000 0.56500000 0.56500000
C 19.75791736 36.33380927 3.74506292 3402 147 0 0.56500000 0.56500000 0.56500000
C 20.96370682 35.47919136 3.55817737 3403 147 0 0.56500000 0.56500000 0.56500000
H 17.79756985 31.55184454 2.14307891 3404 147 0 1.00000000 1.00000000 1.00000000
H 18.50715981 32.25102655 0.67609160 3405 147 0 1.00000000 1.00000000 1.00000000
H 17.04022204 31.16336431 0.70003293 3406 147 0 1.00000000 1.00000000 1.00000000
H 15.81068970 33.05605062 1.94440540 3407 147 0 1.00000000 1.00000000 1.00000000
H 16.42217835 33.58154482 0.34125918 3408 147 0 1.00000000 1.00000000 1.00000000
H 16.91060924 35.31256909 2.02774456 3409 147 0 1.00000000 1.00000000 1.00000000
H 18.47427902 34.68818199 1.57924806 3410 147 0 1.00000000 1.00000000 1.00000000
H 18.58734868 33.48930334 3.74560579 3411 147 0 1.00000000 1.00000000 1.00000000
H 17.05435607 33.99145413 4.25828467 3412 147 0 1.00000000 1.00000000 1.00000000
H 18.68691338 35.40046451 5.32153350 3413 147 0 1.00000000 1.00000000 1.00000000
H 17.66838544 36.40091147 4.16672803 3414 147 0 1.00000000 1.00000000 1.00000000
H 19.96808566 37.18442535 4.45899379 3415 147 0 1.00000000 1.00000000 1.00000000
H 19.53567610 36.85346276 2.77018739 3416 147 0 1.00000000 1.00000000 1.00000000
H 20.64137764 34.52482761 3.17630853 3417 147 0 1.00000000 1.00000000 1.00000000
H 21.54677348 35.15873471 4.42900983 3418 147 0 1.00000000 1.00000000 1.00000000
H 21.64425472 35.95519261 2.88838130 3419 147 0 1.00000000 1.00000000 1.00000000
C 39.53061858 5.92097151 13.40081439 3420 148 0 0.56500000 0.56500000 0.56500000
C 40.41440156 6.46406714 12.28448359 3421 148 0 0.56500000 0.56500000 0.56500000
C 41.33715476 7.65661213 12.68383078 3422 148 0 0.56500000 0.56500000 0.56500000
C 41.92178099 8.39021867 11.48422593 3423 148 0 0.56500000 0.56500000 0.56500000
C 42.84140321 9.58194146 11.65891216 3424 148 0 0.56500000 0.56500000 0.56500000
C 43.20455876 10.13648516 10.28939755 3425 148 0 0.56500000 0.56500000 0.56500000
C 43.96554571 11.49077197 10.29123474 3426 148 0 0.56500000 0.56500000 0.56500000
H 38.68295888 6.57656935 13.63759767 3427 148 0 1.00000000 1.00000000 1.00000000
H 40.05522940 5.70446016 14.29796006 3428 148 0 1.00000000 1.00000000 1.00000000
H 39.07046238 4.96396401 13.08402493 3429 148 0 1.00000000 1.00000000 1.00000000
H 39.81863600 6.92327942 11.52045953 3430 148 0 1.00000000 1.00000000 1.00000000
H 40.99196395 5.64581459 11.85824035 3431 148 0 1.00000000 1.00000000 1.00000000
H 41.98488415 7.16848344 13.41548812 3432 148 0 1.00000000 1.00000000 1.00000000
H 40.76794079 8.35727664 13.22280460 3433 148 0 1.00000000 1.00000000 1.00000000
H 41.12887521 8.65610969 10.85017946 3434 148 0 1.00000000 1.00000000 1.00000000
H 42.49709421 7.69997683 10.74879777 3435 148 0 1.00000000 1.00000000 1.00000000
H 43.76361468 9.26596496 12.21367911 3436 148 0 1.00000000 1.00000000 1.00000000
H 42.38553843 10.38449384 12.26390599 3437 148 0 1.00000000 1.00000000 1.00000000
H 42.21186406 10.23227601 9.78368567 3438 148 0 1.00000000 1.00000000 1.00000000
H 43.72783249 9.37712284 9.66272835 3439 148 0 1.00000000 1.00000000 1.00000000
H 43.77651944 12.14999029 9.43695176 3440 148 0 1.00000000 1.00000000 1.00000000
H 44.99851109 11.25336877 10.43099439 3441 148 0 1.00000000 1.00000000 1.00000000
H 43.61793400 12.09320826 11.12849961 3442 148 0 1.00000000 1.00000000 1.00000000
C 3.80486556 23.50467489 4.33452170 3443 149 0 0.56500000 0.56500000 0.56500000
C 3.63450583 24.64199424 5.27070559 3444 149 0 0.56500000 0.56500000 0.56500000
C 4.85030517 25.50277141 5.53844132 3445 149 0 0.56500000 0.56500000 0.56500000
C 4.92288985 25.99509044 7.04677974 3446 149 0 0.56500000 0.56500000 0.56500000
C 6.00098009 27.17871434 7.18784345 3447 149 0 0.56500000 0.56500000 0.56500000
C 5.94600274 28.44468080 6.41181169 3448 149 0 0.56500000 0.56500000 0.56500000
C 4.83077876 29.37106907 6.73824092 3449 149 0 0.56500000 0.56500000 0.56500000
H 4.62132892 22.86053094 4.54745092 3450 149 0 1.00000000 1.00000000 1.00000000
H 4.12743221 23.94312543 3.31890104 3451 149 0 1.00000000 1.00000000 1.00000000
H 2.95693315 22.85418323 4.20210260 3452 149 0 1.00000000 1.00000000 1.00000000
H 3.27771101 24.19709399 6.23323975 3453 149 0 1.00000000 1.00000000 1.00000000
H 2.82951526 25.22185237 4.79332823 3454 149 0 1.00000000 1.00000000 1.00000000
H 4.97308895 26.36913246 4.84930681 3455 149 0 1.00000000 1.00000000 1.00000000
H 5.84489807 25.05840877 5.43652368 3456 149 0 1.00000000 1.00000000 1.00000000
H 5.18457323 25.20354462 7.69046883 3457 149 0 1.00000000 1.00000000 1.00000000
H 3.89011077 26.36871300 7.38795806 3458 149 0 1.00000000 1.00000000 1.00000000
H 7.00918945 26.72346208 6.92970788 3459 149 0 1.00000000 1.00000000 1.00000000
H 5.97534423 27.36151166 8.27932248 3460 149 0 1.00000000 1.00000000 1.00000000
H 5.86064459 28.07769790 5.38724937 3461 149 0 1.00000000 1.00000000 1.00000000
H 6.96280784 28.93299013 6.46033931 3462 149 0 1.00000000 1.00000000 1.00000000
H 4.80950017 29.68125735 7.78983425 3463 149 0 1.00000000 1.00000000 1.00000000
H 3.73712297 28.90132063 6.55480487 3464 149 0 1.00000000 1.00000000 1.00000000
H 4.82662868 30.22460222 6.05137568 3465 149 0 1.00000000 1.00000000 1.00000000
C 11.93800768 13.87236605 22.18243785 3466 150 0 0.56500000 0.56500000 0.56500000
C 10.72789957 13.90843845 21.25375506 3467 150 0 0.56500000 0.56500000 0.56500000
C 10.38039305 12.53487553 20.59242677 3468 150 0 0.56500000 0.56500000 0.56500000
C 9.06759355 12.57033138 19.74725322 3469 150 0 0.56500000 0.56500000 0.56500000
C 7.86544584 13.34787706 20.33163416 3470 150 0 0.56500000 0.56500000 0.56500000
C 6.67596878 13.42808033 19.33906405 3471 150 0 0.56500000 0.56500000 0.56500000
C 5.31946416 13.53474702 19.97471489 3472 150 0 0.56500000 0.56500000 0.56500000
H 12.87319966 13.55495159 21.57905071 3473 150 0 1.00000000 1.00000000 1.00000000
H 11.83231682 13.17941112 23.00507763 3474 150 0 1.00000000 1.00000000 1.00000000
H 12.15876213 14.92008741 22.56335765 3475 150 0 1.00000000 1.00000000 1.00000000
H 10.80470724 14.72847863 20.52082442 3476 150 0 1.00000000 1.00000000 1.00000000
H 9.83288287 14.23391762 21.90200153 3477 150 0 1.00000000 1.00000000 1.00000000
H 10.35401421 11.73208495 21.38621444 3478 150 0 1.00000000 1.00000000 1.00000000
H 11.26137351 12.33599586 19.97354482 3479 150 0 1.00000000 1.00000000 1.00000000
H 8.68677850 11.55310966 19.57948484 3480 150 0 1.00000000 1.00000000 1.00000000
H 9.24636682 13.04736537 18.76397887 3481 150 0 1.00000000 1.00000000 1.00000000
H 8.23168462 14.31995088 20.58275848 3482 150 0 1.00000000 1.00000000 1.00000000
H 7.59496900 12.91195198 21.28470852 3483 150 0 1.00000000 1.00000000 1.00000000
H 6.74026757 12.46682794 18.82286212 3484 150 0 1.00000000 1.00000000 1.00000000
H 6.92534286 14.20923010 18.60480839 3485 150 0 1.00000000 1.00000000 1.00000000
H 5.29460347 14.28382989 20.77687596 3486 150 0 1.00000000 1.00000000 1.00000000
H 5.21576469 12.55206310 20.47383419 3487 150 0 1.00000000 1.00000000 1.00000000
H 4.49586990 13.74321413 19.32984797 3488 150 0 1.00000000 1.00000000 1.00000000
C 14.52912240 40.63140517 32.49370449 3489 151 0 0.56500000 0.56500000 0.56500000
C 13.45664284 39.80935976 31.76636844 3490 151 0 0.56500000 0.56500000 0.56500000
C 13.02490085 38.47552020 32.38041013 3491 151 0 0.56500000 0.56500000 0.56500000
C 11.88345296 37.82443634 31.62774649 3492 151 0 0.56500000 0.56500000 0.56500000
C 12.12549827 37.29677019 30.21253631 3493 151 0 0.56500000 0.56500000 0.56500000
C 11.06027518 36.59840348 29.37160394 3494 151 0 0.56500000 0.56500000 0.56500000
C 11.58545625 36.36475449 27.91829888 3495 151 0 0.56500000 0.56500000 0.56500000
H 14.90647505 41.34043831 31.75150259 3496 151 0 1.00000000 1.00000000 1.00000000
H 15.31906018 40.00433225 32.87743236 3497 151 0 1.00000000 1.00000000 1.00000000
H 14.07868915 41.14770338 33.33922040 3498 151 0 1.00000000 1.00000000 1.00000000
H 13.82552599 39.53374725 30.77904802 3499 151 0 1.00000000 1.00000000 1.00000000
H 12.55844187 40.45226906 31.65757127 3500 151 0 1.00000000 1.00000000 1.00000000
H 12.66498148 38.55862087 33.44839555 3501 151 0 1.00000000 1.00000000 1.00000000
H 13.88235488 37.74152293 32.41580727 3502 151 0 1.00000000 1.00000000 1.00000000
H 10.98672791 38.44516861 31.60443970 3503 151 0 1.00000000 1.00000000 1.00000000
H 11.45926127 36.97585328 32.23145194 3504 151 0 1.00000000 1.00000000 1.00000000
H 12.94517350 36.55368714 30.18082989 3505 151 0 1.00000000 1.00000000 1.00000000
H 12.54310300 38.21945123 29.71073282 3506 151 0 1.00000000 1.00000000 1.00000000
H 10.24188030 37.25027475 29.29609173 3507 151 0 1.00000000 1.00000000 1.00000000
H 10.86879780 35.57908501 29.76610716 3508 151 0 1.00000000 1.00000000 1.00000000
H 12.59801795 35.82455042 27.97892856 3509 151 0 1.00000000 1.00000000 1.00000000
H 11.93384530 37.23275099 27.40540882 3510 151 0 1.00000000 1.00000000 1.00000000
H 10.77182840 35.88689810 27.36384322 3511 151 0 1.00000000 1.00000000 1.00000000
C 7.27075739 7.32965708 0.42678880 3512 152 0 0.56500000 0.56500000 0.56500000
C 8.52224155 7.79424626 -0.30508012 3513 152 0 0.56500000 0.56500000 0.56500000
C 9.44454888 8.69718401 0.58747658 3514 152 0 0.56500000 0.56500000 0.56500000
C 8.95416179 10.14112666 0.67776678 3515 152 0 0.56500000 0.56500000 0.56500000
C 9.59440535 11.01030996 1.78666894 3516 152 0 0.56500000 0.56500000 0.56500000
C 9.17536059 12.47750977 1.79036468 3517 152 0 0.56500000 0.56500000 0.56500000
C 9.95692505 13.31174426 2.86031720 3518 152 0 0.56500000 0.56500000 0.56500000
H 6.66914454 8.09440294 0.87826514 3519 152 0 1.00000000 1.00000000 1.00000000
H 7.49522992 6.64953385 1.22793305 3520 152 0 1.00000000 1.00000000 1.00000000
H 6.73560549 6.54734746 -0.23420683 3521 152 0 1.00000000 1.00000000 1.00000000
H 8.33369232 8.35669027 -1.21814599 3522 152 0 1.00000000 1.00000000 1.00000000
H 9.08529274 6.88347428 -0.53847150 3523 152 0 1.00000000 1.00000000 1.00000000
H 10.51242974 8.68405947 0.27467776 3524 152 0 1.00000000 1.00000000 1.00000000
H 9.45387068 8.30889025 1.55585981 3525 152 0 1.00000000 1.00000000 1.00000000
H 7.87342174 10.22180549 0.72229339 3526 152 0 1.00000000 1.00000000 1.00000000
H 9.24424847 10.71559819 -0.19571898 3527 152 0 1.00000000 1.00000000 1.00000000
H 10.68824622 10.78806870 1.70037056 3528 152 0 1.00000000 1.00000000 1.00000000
H 9.38552160 10.59319211 2.79788029 3529 152 0 1.00000000 1.00000000 1.00000000
H 8.10489446 12.42491472 2.05372261 3530 152 0 1.00000000 1.00000000 1.00000000
H 9.24019870 12.96811233 0.79597449 3531 152 0 1.00000000 1.00000000 1.00000000
H 11.08362449 13.09009334 2.96023494 3532 152 0 1.00000000 1.00000000 1.00000000
H 9.48512321 13.34110072 3.84525770 3533 152 0 1.00000000 1.00000000 1.00000000
H 9.98853026 14.36077760 2.59357770 3534 152 0 1.00000000 1.00000000 1.00000000
C 39.69071912 31.48625645 -7.24908418 3535 153 0 0.56500000 0.56500000 0.56500000
C 38.46774034 30.60470776 -6.85272320 3536 153 0 0.56500000 0.56500000 0.56500000
C 37.72381441 30.93556328 -5.51064600 3537 153 0 0.56500000 0.56500000 0.56500000
C 36.44896772 30.12474536 -5.25425286 3538 153 0 0.56500000 0.56500000 0.56500000
C 36.80089780 28.70165139 -4.65457233 3539 153 0 0.56500000 0.56500000 0.56500000
C 35.56052552 27.85305363 -4.25764034 3540 153 0 0.56500000 0.56500000 0.56500000
C 34.71083052 28.48459597 -3.17463908 3541 153 0 0.56500000 0.56500000 0.56500000
H 40.20356280 31.09134943 -8.12081333 3542 153 0 1.00000000 1.00000000 1.00000000
H 40.47028241 31.34966994 -6.47438165 3543 153 0 1.00000000 1.00000000 1.00000000
H 39.43778002 32.52127617 -7.35104291 3544 153 0 1.00000000 1.00000000 1.00000000
H 38.82399168 29.59321014 -6.68065044 3545 153 0 1.00000000 1.00000000 1.00000000
H 37.68537147 30.56441108 -7.64970633 3546 153 0 1.00000000 1.00000000 1.00000000
H 37.35206761 32.01606022 -5.56507680 3547 153 0 1.00000000 1.00000000 1.00000000
H 38.34169447 30.82392553 -4.64958875 3548 153 0 1.00000000 1.00000000 1.00000000
H 35.80310954 30.01579782 -6.14661192 3549 153 0 1.00000000 1.00000000 1.00000000
H 35.85896942 30.62098154 -4.53483987 3550 153 0 1.00000000 1.00000000 1.00000000
H 37.35127323 28.82954030 -3.74594046 3551 153 0 1.00000000 1.00000000 1.00000000
H 37.46235290 28.15313639 -5.29820006 3552 153 0 1.00000000 1.00000000 1.00000000
H 35.90769661 26.87612357 -3.84513925 3553 153 0 1.00000000 1.00000000 1.00000000
H 34.94574331 27.68531568 -5.10994812 3554 153 0 1.00000000 1.00000000 1.00000000
H 35.20562291 28.61511602 -2.22073881 3555 153 0 1.00000000 1.00000000 1.00000000
H 33.87869392 27.82690480 -2.83820974 3556 153 0 1.00000000 1.00000000 1.00000000
H 34.23542944 29.49391367 -3.40387777 3557 153 0 1.00000000 1.00000000 1.00000000
C 48.39609106 22.11349320 28.18866243 3558 154 0 0.56500000 0.56500000 0.56500000
C 49.35096218 21.27117459 28.92264674 3559 154 0 0.56500000 0.56500000 0.56500000
C 49.35687672 19.71498172 28.77713198 3560 154 0 0.56500000 0.56500000 0.56500000
C 48.14217049 18.97658523 29.37263932 3561 154 0 0.56500000 0.56500000 0.56500000
C 48.03002653 18.97702900 30.85441172 3562 154 0 0.56500000 0.56500000 0.56500000
C 46.80884759 18.34541988 31.42163787 3563 154 0 0.56500000 0.56500000 0.56500000
C 45.52555006 19.17922892 31.29554096 3564 154 0 0.56500000 0.56500000 0.56500000
H 48.52213560 22.18962738 27.11250728 3565 154 0 1.00000000 1.00000000 1.00000000
H 48.52449611 23.13341940 28.58306901 3566 154 0 1.00000000 1.00000000 1.00000000
H 47.32962596 21.85417137 28.37756939 3567 154 0 1.00000000 1.00000000 1.00000000
H 49.18832892 21.60459496 29.96612400 3568 154 0 1.00000000 1.00000000 1.00000000
H 50.32209524 21.60188462 28.65682559 3569 154 0 1.00000000 1.00000000 1.00000000
H 50.24783638 19.32955819 29.34720785 3570 154 0 1.00000000 1.00000000 1.00000000
H 49.50200433 19.46028239 27.71887965 3571 154 0 1.00000000 1.00000000 1.00000000
H 48.04371604 17.86866237 29.01269591 3572 154 0 1.00000000 1.00000000 1.00000000
H 47.31089463 19.46190510 28.90134826 3573 154 0 1.00000000 1.00000000 1.00000000
H 48.33548970 19.83907573 31.44954374 3574 154 0 1.00000000 1.00000000 1.00000000
H 48.87830645 18.33035262 31.23811963 3575 154 0 1.00000000 1.00000000 1.00000000
H 46.95381707 18.16935291 32.49317426 3576 154 0 1.00000000 1.00000000 1.00000000
H 46.77127191 17.40277046 30.90406922 3577 154 0 1.00000000 1.00000000 1.00000000
H 44.62430972 18.64295471 31.64966690 3578 154 0 1.00000000 1.00000000 1.00000000
H 45.38524332 19.63574755 30.33069413 3579 154 0 1.00000000 1.00000000 1.00000000
H 45.60527756 19.97878510 32.01948052 3580 154 0 1.00000000 1.00000000 1.00000000
C 32.79602590 35.61871613 0.81057047 3581 155 0 0.56500000 0.56500000 0.56500000
C 31.27725690 35.58128694 0.67835967 3582 155 0 0.56500000 0.56500000 0.56500000
C 30.49472716 36.86705632 0.83079709 3583 155 0 0.56500000 0.56500000 0.56500000
C 29.06751147 36.85784723 0.34869245 3584 155 0 0.56500000 0.56500000 0.56500000
C 28.09824461 36.11427864 1.27360450 3585 155 0 0.56500000 0.56500000 0.56500000
C 26.62819402 36.12711272 0.93415558 3586 155 0 0.56500000 0.56500000 0.56500000
C 25.98416465 34.93495621 1.62505676 3587 155 0 0.56500000 0.56500000 0.56500000
H 33.12708773 34.59377754 0.56378027 3588 155 0 1.00000000 1.00000000 1.00000000
H 33.05741236 35.85800203 1.85600442 3589 155 0 1.00000000 1.00000000 1.00000000
H 33.22782001 36.36104144 0.13070566 3590 155 0 1.00000000 1.00000000 1.00000000
H 30.78565122 34.77967021 1.30729764 3591 155 0 1.00000000 1.00000000 1.00000000
H 31.04502180 35.20355030 -0.38741189 3592 155 0 1.00000000 1.00000000 1.00000000
H 31.06079114 37.64615937 0.27484753 3593 155 0 1.00000000 1.00000000 1.00000000
H 30.50971372 37.25430174 1.88008284 3594 155 0 1.00000000 1.00000000 1.00000000
H 29.00798254 36.52042752 -0.68668952 3595 155 0 1.00000000 1.00000000 1.00000000
H 28.70133347 37.85313668 0.21386992 3596 155 0 1.00000000 1.00000000 1.00000000
H 28.13564908 36.46229784 2.28905044 3597 155 0 1.00000000 1.00000000 1.00000000
H 28.40180673 35.07967901 1.33135950 3598 155 0 1.00000000 1.00000000 1.00000000
H 26.43899156 36.15299937 -0.16585933 3599 155 0 1.00000000 1.00000000 1.00000000
H 26.18754003 37.05584948 1.30116532 3600 155 0 1.00000000 1.00000000 1.00000000
H 26.05112583 34.90357607 2.70688998 3601 155 0 1.00000000 1.00000000 1.00000000
H 26.28491034 33.94339414 1.25329069 3602 155 0 1.00000000 1.00000000 1.00000000
H 24.92467387 34.91918540 1.29481772 3603 155 0 1.00000000 1.00000000 1.00000000
C 35.86380881 16.90974201 19.52847756 3604 156 0 0.56500000 0.56500000 0.56500000
C 36.44300791 15.59451733 18.92885593 3605 156 0 0.56500000 0.56500000 0.56500000
C 35.62964304 15.01650928 17.76209675 3606 156 0 0.56500000 0.56500000 0.56500000
C 36.32668180 13.81988413 17.08414735 3607 156 0 0.56500000 0.56500000 0.56500000
C 35.94032332 13.61113188 15.66784918 3608 156 0 0.56500000 0.56500000 0.56500000
C 34.35496297 13.47564248 15.38782848 3609 156 0 0.56500000 0.56500000 0.56500000
C 33.78726942 12.31844371 16.22365884 3610 156 0 0.56500000 0.56500000 0.56500000
H 36.61206002 17.26260818 20.21552809 3611 156 0 1.00000000 1.00000000 1.00000000
H 34.91764429 16.85090960 20.01031947 3612 156 0 1.00000000 1.00000000 1.00000000
H 35.77527890 17.68998392 18.76393099 3613 156 0 1.00000000 1.00000000 1.00000000
H 36.69396952 14.81512121 19.59664424 3614 156 0 1.00000000 1.00000000 1.00000000
H 37.39245869 15.78329238 18.43668842 3615 156 0 1.00000000 1.00000000 1.00000000
H 35.66410722 15.83532256 17.03482711 3616 156 0 1.00000000 1.00000000 1.00000000
H 34.59309231 14.74370279 17.98242539 3617 156 0 1.00000000 1.00000000 1.00000000
H 36.15249237 12.86641979 17.57437720 3618 156 0 1.00000000 1.00000000 1.00000000
H 37.46200917 13.85898034 17.25036660 3619 156 0 1.00000000 1.00000000 1.00000000
H 36.37405579 12.69515948 15.20809197 3620 156 0 1.00000000 1.00000000 1.00000000
H 36.40844041 14.42013515 15.02844056 3621 156 0 1.00000000 1.00000000 1.00000000
H 34.16425394 13.23717695 14.30999030 3622 156 0 1.00000000 1.00000000 1.00000000
H 33.78360991 14.41996930 15.66852651 3623 156 0 1.00000000 1.00000000 1.00000000
H 34.28811605 11.37159000 16.24904247 3624 156 0 1.00000000 1.00000000 1.00000000
H 32.78017038 12.04710922 15.88084315 3625 156 0 1.00000000 1.00000000 1.00000000
H 33.64827631 12.71403558 17.23213137 3626 156 0 1.00000000 1.00000000 1.00000000
C 8.13536529 43.81117304 6.29496377 3627 157 0 0.56500000 0.56500000 0.56500000
C 7.24989607 42.81495701 5.54776494 3628 157 0 0.56500000 0.56500000 0.56500000
C 7.73628458 41.31815327 5.75251621 3629 157 0 0.56500000 0.56500000 0.56500000
C 9.09371590 41.08803233 5.12910353 3630 157 0 0.56500000 0.56500000 0.56500000
C 9.40731113 39.65345229 4.87957787 3631 157 0 0.56500000 0.56500000 0.56500000
C 8.58441612 38.68095114 3.96717810 3632 157 0 0.56500000 0.56500000 0.56500000
C 8.98584547 37.22134852 4.08629525 3633 157 0 0.56500000 0.56500000 0.56500000
H 8.04553905 43.65811686 7.41353328 3634 157 0 1.00000000 1.00000000 1.00000000
H 7.95136058 44.88268443 6.11373389 3635 157 0 1.00000000 1.00000000 1.00000000
H 9.22585307 43.59449021 6.04283276 3636 157 0 1.00000000 1.00000000 1.00000000
H 7.30182254 43.03216897 4.48865194 3637 157 0 1.00000000 1.00000000 1.00000000
H 6.22671489 42.88796843 5.88436965 3638 157 0 1.00000000 1.00000000 1.00000000
H 6.99954988 40.63733348 5.27151860 3639 157 0 1.00000000 1.00000000 1.00000000
H 7.75906321 41.10519246 6.88274420 3640 157 0 1.00000000 1.00000000 1.00000000
H 9.78210740 41.51867468 5.86778836 3641 157 0 1.00000000 1.00000000 1.00000000
H 9.16717114 41.68417104 4.19642661 3642 157 0 1.00000000 1.00000000 1.00000000
H 9.61177991 39.10870158 5.79241335 3643 157 0 1.00000000 1.00000000 1.00000000
H 10.39120360 39.62010277 4.43624568 3644 157 0 1.00000000 1.00000000 1.00000000
H 8.65985812 38.97363884 2.92419881 3645 157 0 1.00000000 1.00000000 1.00000000
H 7.47864586 38.80600060 4.12144254 3646 157 0 1.00000000 1.00000000 1.00000000
H 9.89715157 37.04560304 3.58877593 3647 157 0 1.00000000 1.00000000 1.00000000
H 8.19911686 36.51625749 3.79801102 3648 157 0 1.00000000 1.00000000 1.00000000
H 9.12196075 37.03876883 5.11178102 3649 157 0 1.00000000 1.00000000 1.00000000
C 36.27700478 44.15137164 -2.66829623 3650 158 0 0.56500000 0.56500000 0.56500000
C 37.21359077 42.93324036 -2.23832516 3651 158 0 0.56500000 0.56500000 0.56500000
C 38.31336940 42.67139728 -3.30367875 3652 158 0 0.56500000 0.56500000 0.56500000
C 39.09341776 41.37347643 -3.04716750 3653 158 0 0.56500000 0.56500000 0.56500000
C 40.31308714 41.21061142 -3.94782819 3654 158 0 0.56500000 0.56500000 0.56500000
C 41.17896305 39.97497077 -3.91326824 3655 158 0 0.56500000 0.56500000 0.56500000
C 40.45273627 38.82313304 -4.60633717 3656 158 0 0.56500000 0.56500000 0.56500000
H 35.76907784 43.84960710 -3.65418455 3657 158 0 1.00000000 1.00000000 1.00000000
H 36.88390588 44.99784514 -2.63125038 3658 158 0 1.00000000 1.00000000 1.00000000
H 35.44089049 44.32763487 -1.95800966 3659 158 0 1.00000000 1.00000000 1.00000000
H 36.56886543 42.01677820 -2.17774586 3660 158 0 1.00000000 1.00000000 1.00000000
H 37.64056042 43.07842883 -1.25938919 3661 158 0 1.00000000 1.00000000 1.00000000
H 38.98329892 43.46885387 -3.53669753 3662 158 0 1.00000000 1.00000000 1.00000000
H 37.82659344 42.58575450 -4.30160658 3663 158 0 1.00000000 1.00000000 1.00000000
H 38.49293828 40.46506088 -3.03866735 3664 158 0 1.00000000 1.00000000 1.00000000
H 39.48657726 41.34832862 -2.02926147 3665 158 0 1.00000000 1.00000000 1.00000000
H 40.93019227 42.09005719 -3.59985965 3666 158 0 1.00000000 1.00000000 1.00000000
H 39.99931405 41.50082944 -4.99401500 3667 158 0 1.00000000 1.00000000 1.00000000
H 41.28072736 39.72070688 -2.87400060 3668 158 0 1.00000000 1.00000000 1.00000000
H 42.16720617 40.19556851 -4.39050017 3669 158 0 1.00000000 1.00000000 1.00000000
H 40.16664045 38.01472630 -3.97310339 3670 158 0 1.00000000 1.00000000 1.00000000
H 41.02672121 38.43068637 -5.46555202 3671 158 0 1.00000000 1.00000000 1.00000000
H 39.58441923 39.27926714 -5.00378958 3672 158 0 1.00000000 1.00000000 1.00000000
C 11.88080347 9.00797598 43.15705239 3673 159 0 0.56500000 0.56500000 0.56500000
C 11.92074994 10.50085774 42.57771514 3674 159 0 0.56500000 0.56500000 0.56500000
C 12.04351301 10.53730176 41.08875724 3675 159 0 0.56500000 0.56500000 0.56500000
C 10.95242950 9.97108646 40.18136441 3676 159 0 0.56500000 0.56500000 0.56500000
C 10.92788520 10.51525469 38.81758270 3677 159 0 0.56500000 0.56500000 0.56500000
C 9.76147532 9.93027498 37.91095342 3678 159 0 0.56500000 0.56500000 0.56500000
C 10.02050952 10.05503843 36.41361613 3679 159 0 0.56500000 0.56500000 0.56500000
H 11.87496399 8.96190648 44.26623216 3680 159 0 1.00000000 1.00000000 1.00000000
H 12.73974281 8.40999095 42.85184019 3681 159 0 1.00000000 1.00000000 1.00000000
H 11.01611723 8.48396001 42.72635066 3682 159 0 1.00000000 1.00000000 1.00000000
H 12.76867139 10.96719339 43.02106761 3683 159 0 1.00000000 1.00000000 1.00000000
H 11.00920082 11.06114879 42.88645807 3684 159 0 1.00000000 1.00000000 1.00000000
H 12.92353111 9.99168279 40.80890930 3685 159 0 1.00000000 1.00000000 1.00000000
H 12.22266571 11.55885670 40.81485187 3686 159 0 1.00000000 1.00000000 1.00000000
H 9.96918629 10.17949261 40.75969906 3687 159 0 1.00000000 1.00000000 1.00000000
H 11.05664062 8.93887527 40.16896768 3688 159 0 1.00000000 1.00000000 1.00000000
H 11.87312303 10.26743739 38.38659212 3689 159 0 1.00000000 1.00000000 1.00000000
H 10.90475828 11.62139565 38.84481646 3690 159 0 1.00000000 1.00000000 1.00000000
H 8.75321872 10.27357044 38.19745459 3691 159 0 1.00000000 1.00000000 1.00000000
H 9.78277962 8.85418189 38.12517817 3692 159 0 1.00000000 1.00000000 1.00000000
H 11.08407099 9.91172269 36.25950441 3693 159 0 1.00000000 1.00000000 1.00000000
H 9.85709378 11.13102276 36.16598028 3694 159 0 1.00000000 1.00000000 1.00000000
H 9.45018232 9.48243159 35.74713474 3695 159 0 1.00000000 1.00000000 1.00000000
C 37.63657995 7.96997204 -1.00050735 3696 160 0 0.56500000 0.56500000 0.56500000
C 37.91007006 9.35513534 -1.65404125 3697 160 0 0.56500000 0.56500000 0.56500000
C 38.97270276 10.24970393 -0.98003357 3698 160 0 0.56500000 0.56500000 0.56500000
C 38.54090827 10.57124582 0.41758224 3699 160 0 0.56500000 0.56500000 0.56500000
C 37.82176131 11.93896824 0.48789604 3700 160 0 0.56500000 0.56500000 0.56500000
C 37.36747246 12.34530174 1.91129048 3701 160 0 0.56500000 0.56500000 0.56500000
C 36.04300034 11.66529826 2.22924983 3702 160 0 0.56500000 0.56500000 0.56500000
H 37.61165255 7.97073148 0.06975983 3703 160 0 1.00000000 1.00000000 1.00000000
H 38.42396773 7.30571610 -1.26932074 3704 160 0 1.00000000 1.00000000 1.00000000
H 36.63343008 7.62742363 -1.37137822 3705 160 0 1.00000000 1.00000000 1.00000000
H 36.96267901 9.96405720 -1.60706846 3706 160 0 1.00000000 1.00000000 1.00000000
H 38.11899387 9.09568335 -2.67093879 3707 160 0 1.00000000 1.00000000 1.00000000
H 39.14325898 11.19339720 -1.45126986 3708 160 0 1.00000000 1.00000000 1.00000000
H 39.91753868 9.71933448 -1.07721407 3709 160 0 1.00000000 1.00000000 1.00000000
H 39.47320602 10.78643013 0.96131660 3710 160 0 1.00000000 1.00000000 1.00000000
H 37.92449307 9.80899091 0.89434020 3711 160 0 1.00000000 1.00000000 1.00000000
H 36.94650499 12.00220656 -0.24638284 3712 160 0 1.00000000 1.00000000 1.00000000
H 38.55995897 12.67822370 0.13346127 3713 160 0 1.00000000 1.00000000 1.00000000
H 37.31424598 13.42057518 2.06283827 3714 160 0 1.00000000 1.00000000 1.00000000
H 38.16699888 12.06032717 2.61021984 3715 160 0 1.00000000 1.00000000 1.00000000
H 36.13762904 10.66519470 1.81790850 3716 160 0 1.00000000 1.00000000 1.00000000
H 35.27571654 12.12980432 1.59278791 3717 160 0 1.00000000 1.00000000 1.00000000
H 35.82799458 11.62099788 3.29003286 3718 160 0 1.00000000 1.00000000 1.00000000
C 4.99944294 9.24231836 21.30585483 3719 161 0 0.56500000 0.56500000 0.56500000
C 6.11384547 8.38242013 21.73091460 3720 161 0 0.56500000 0.56500000 0.56500000
C 7.48688621 9.13413436 21.56274917 3721 161 0 0.56500000 0.56500000 0.56500000
C 8.61051575 8.37933073 22.27679240 3722 161 0 0.56500000 0.56500000 0.56500000
C 8.57700544 8.31755418 23.80509423 3723 161 0 0.56500000 0.56500000 0.56500000
C 9.92602761 7.89751490 24.34791708 3724 161 0 0.56500000 0.56500000 0.56500000
C 10.01880372 7.83044995 25.80784497 3725 161 0 0.56500000 0.56500000 0.56500000
H 3.97494959 8.83236724 21.19431529 3726 161 0 1.00000000 1.00000000 1.00000000
H 5.10128297 9.58452318 20.22588341 3727 161 0 1.00000000 1.00000000 1.00000000
H 4.79154230 10.17026042 21.94777790 3728 161 0 1.00000000 1.00000000 1.00000000
H 6.10606992 7.41163097 21.30455129 3729 161 0 1.00000000 1.00000000 1.00000000
H 6.00950883 8.16129742 22.77629091 3730 161 0 1.00000000 1.00000000 1.00000000
H 7.45137689 10.06939846 22.03063526 3731 161 0 1.00000000 1.00000000 1.00000000
H 7.71259040 9.32423407 20.49915329 3732 161 0 1.00000000 1.00000000 1.00000000
H 9.61457726 8.80461848 22.01642052 3733 161 0 1.00000000 1.00000000 1.00000000
H 8.57909373 7.31128906 21.98758229 3734 161 0 1.00000000 1.00000000 1.00000000
H 7.80853086 7.56718760 24.10791764 3735 161 0 1.00000000 1.00000000 1.00000000
H 8.20432875 9.26938152 24.24195629 3736 161 0 1.00000000 1.00000000 1.00000000
H 10.71987810 8.53701678 23.89035609 3737 161 0 1.00000000 1.00000000 1.00000000
H 10.18295657 6.88468385 23.94215649 3738 161 0 1.00000000 1.00000000 1.00000000
H 9.19283449 7.21659514 26.19622061 3739 161 0 1.00000000 1.00000000 1.00000000
H 9.97218691 8.81396440 26.28728695 3740 161 0 1.00000000 1.00000000 1.00000000
H 10.91545995 7.33071006 26.13455360 3741 161 0 1.00000000 1.00000000 1.00000000
C 22.03078150 15.67438012 39.03201147 3742 162 0 0.56500000 0.56500000 0.56500000
C 23.57108450 15.47832251 39.05390089 3743 162 0 0.56500000 0.56500000 0.56500000
C 24.18810613 15.84455583 37.69562151 3744 162 0 0.56500000 0.56500000 0.56500000
C 25.53399516 15.29132136 37.43128452 3745 162 0 0.56500000 0.56500000 0.56500000
C 26.53491225 15.48033643 38.57499791 3746 162 0 0.56500000 0.56500000 0.56500000
C 27.95226839 15.07076540 38.28875533 3747 162 0 0.56500000 0.56500000 0.56500000
C 28.69525599 14.55125278 39.51211032 3748 162 0 0.56500000 0.56500000 0.56500000
H 21.45259546 15.27019065 39.81371946 3749 162 0 1.00000000 1.00000000 1.00000000
H 21.75390405 15.05119491 38.16385544 3750 162 0 1.00000000 1.00000000 1.00000000
H 21.75018403 16.75079637 38.89467302 3751 162 0 1.00000000 1.00000000 1.00000000
H 23.93461945 14.50603105 39.34671852 3752 162 0 1.00000000 1.00000000 1.00000000
H 23.92580986 16.15754626 39.81666457 3753 162 0 1.00000000 1.00000000 1.00000000
H 24.20317621 16.98784511 37.53556217 3754 162 0 1.00000000 1.00000000 1.00000000
H 23.59350372 15.48758503 36.89970955 3755 162 0 1.00000000 1.00000000 1.00000000
H 25.93784788 15.92110864 36.60764371 3756 162 0 1.00000000 1.00000000 1.00000000
H 25.54759921 14.27466387 37.01311169 3757 162 0 1.00000000 1.00000000 1.00000000
H 26.26012173 15.02695162 39.48397973 3758 162 0 1.00000000 1.00000000 1.00000000
H 26.45285957 16.58691182 38.77375986 3759 162 0 1.00000000 1.00000000 1.00000000
H 28.47406196 16.00505456 37.95782568 3760 162 0 1.00000000 1.00000000 1.00000000
H 27.93649709 14.24214328 37.43912257 3761 162 0 1.00000000 1.00000000 1.00000000
H 28.99467290 15.36933786 40.17408652 3762 162 0 1.00000000 1.00000000 1.00000000
H 29.62256056 14.04778417 39.29038744 3763 162 0 1.00000000 1.00000000 1.00000000
H 28.16355922 13.76699174 40.14542629 3764 162 0 1.00000000 1.00000000 1.00000000
C 18.50972459 11.42759788 0.38410756 3765 163 0 0.56500000 0.56500000 0.56500000
C 17.94851979 10.69741676 -0.81673271 3766 163 0 0.56500000 0.56500000 0.56500000
C 16.65402203 9.94526297 -0.59292192 3767 163 0 0.56500000 0.56500000 0.56500000
C 16.79770977 8.65511694 0.11936632 3768 163 0 0.56500000 0.56500000 0.56500000
C 15.49202958 7.71655714 0.22417473 3769 163 0 0.56500000 0.56500000 0.56500000
C 15.81057742 6.38123209 0.98454590 3770 163 0 0.56500000 0.56500000 0.56500000
C 16.43423120 6.42953793 2.40887649 3771 163 0 0.56500000 0.56500000 0.56500000
H 19.35631492 11.88538428 0.00329409 3772 163 0 1.00000000 1.00000000 1.00000000
H 18.83862327 10.78544049 1.22019925 3773 163 0 1.00000000 1.00000000 1.00000000
H 17.74940263 12.09177156 0.78531839 3774 163 0 1.00000000 1.00000000 1.00000000
H 18.63005037 9.97689540 -1.27398630 3775 163 0 1.00000000 1.00000000 1.00000000
H 17.81885615 11.39377289 -1.61109101 3776 163 0 1.00000000 1.00000000 1.00000000
H 16.25172567 9.79155950 -1.60760359 3777 163 0 1.00000000 1.00000000 1.00000000
H 15.90245468 10.59718050 -0.10233887 3778 163 0 1.00000000 1.00000000 1.00000000
H 17.16936493 8.94159568 1.12073811 3779 163 0 1.00000000 1.00000000 1.00000000
H 17.44979463 8.01905536 -0.39549105 3780 163 0 1.00000000 1.00000000 1.00000000
H 15.10211026 7.51791700 -0.85924367 3781 163 0 1.00000000 1.00000000 1.00000000
H 14.71094816 8.28263152 0.75466877 3782 163 0 1.00000000 1.00000000 1.00000000
H 16.53517278 5.72403213 0.42408397 3783 163 0 1.00000000 1.00000000 1.00000000
H 14.88449254 5.84966584 1.07832541 3784 163 0 1.00000000 1.00000000 1.00000000
H 15.81881920 6.89102147 3.18496301 3785 163 0 1.00000000 1.00000000 1.00000000
H 17.40108954 6.95864976 2.43516066 3786 163 0 1.00000000 1.00000000 1.00000000
H 16.51175796 5.40172115 2.79212856 3787 163 0 1.00000000 1.00000000 1.00000000
C 22.60979403 42.49898563 12.38694409 3788 164 0 0.56500000 0.56500000 0.56500000
C 22.32425042 43.89760810 11.85683060 3789 164 0 0.56500000 0.56500000 0.56500000
C 22.78674542 44.98946808 12.87016264 3790 164 0 0.56500000 0.56500000 0.56500000
C 21.95130262 45.22482992 14.16002340 3791 164 0 0.56500000 0.56500000 0.56500000
C 22.70652898 45.97481102 15.22694280 3792 164 0 0.56500000 0.56500000 0.56500000
C 23.82843624 45.26006987 16.04935839 3793 164 0 0.56500000 0.56500000 0.56500000
C 25.26758889 45.47429252 15.66160833 3794 164 0 0.56500000 0.56500000 0.56500000
H 22.17100566 41.73538908 11.77460813 3795 164 0 1.00000000 1.00000000 1.00000000
H 22.26257150 42.33025699 13.44072276 3796 164 0 1.00000000 1.00000000 1.00000000
H 23.66938728 42.46801876 12.46270397 3797 164 0 1.00000000 1.00000000 1.00000000
H 21.28778548 44.14077364 11.47517916 3798 164 0 1.00000000 1.00000000 1.00000000
H 22.92391509 43.90999617 10.90588454 3799 164 0 1.00000000 1.00000000 1.00000000
H 22.68819776 46.04418605 12.38383261 3800 164 0 1.00000000 1.00000000 1.00000000
H 23.85666276 44.83431580 13.15894638 3801 164 0 1.00000000 1.00000000 1.00000000
H 21.61993717 44.26367653 14.49345020 3802 164 0 1.00000000 1.00000000 1.00000000
H 21.05056105 45.76443291 13.84447917 3803 164 0 1.00000000 1.00000000 1.00000000
H 21.96298542 46.25712889 15.98995456 3804 164 0 1.00000000 1.00000000 1.00000000
H 23.18849439 46.88270005 14.83448228 3805 164 0 1.00000000 1.00000000 1.00000000
H 23.60133386 44.23423045 16.15964164 3806 164 0 1.00000000 1.00000000 1.00000000
H 23.82204884 45.73510334 17.06445913 3807 164 0 1.00000000 1.00000000 1.00000000
H 25.94827585 44.87914397 16.37141792 3808 164 0 1.00000000 1.00000000 1.00000000
H 25.56275354 46.51247567 15.63049032 3809 164 0 1.00000000 1.00000000 1.00000000
H 25.53611279 45.02051416 14.68914865 3810 164 0 1.00000000 1.00000000 1.00000000
C 20.14740354 12.65092523 7.73559864 3811 165 0 0.56500000 0.56500000 0.56500000
C 21.57939036 12.68642412 8.31640817 3812 165 0 0.56500000 0.56500000 0.56500000
C 22.36361702 13.92241858 7.92281155 3813 165 0 0.56500000 0.56500000 0.56500000
C 21.84856098 15.32655236 8.37970153 3814 165 0 0.56500000 0.56500000 0.56500000
C 22.42606179 15.79293619 9.73527604 3815 165 0 0.56500000 0.56500000 0.56500000
C 21.70714112 16.93809698 10.33297770 3816 165 0 0.56500000 0.56500000 0.56500000
C 22.23706621 17.29867745 11.73005949 3817 165 0 0.56500000 0.56500000 0.56500000
H 19.73937907 11.58785981 7.62794987 3818 165 0 1.00000000 1.00000000 1.00000000
H 20.16142145 13.05409585 6.69196768 3819 165 0 1.00000000 1.00000000 1.00000000
H 19.49761716 13.32491054 8.27424054 3820 165 0 1.00000000 1.00000000 1.00000000
H 22.12180920 11.74334105 8.06893643 3821 165 0 1.00000000 1.00000000 1.00000000
H 21.50071946 12.62888811 9.44816400 3822 165 0 1.00000000 1.00000000 1.00000000
H 22.38044383 13.93795781 6.79185859 3823 165 0 1.00000000 1.00000000 1.00000000
H 23.33832731 13.76395390 8.15868858 3824 165 0 1.00000000 1.00000000 1.00000000
H 20.78302215 15.40898035 8.22699441 3825 165 0 1.00000000 1.00000000 1.00000000
H 22.16141216 16.02931672 7.60126091 3826 165 0 1.00000000 1.00000000 1.00000000
H 23.56936051 15.80453258 9.66593028 3827 165 0 1.00000000 1.00000000 1.00000000
H 22.39775728 14.92641822 10.42573057 3828 165 0 1.00000000 1.00000000 1.00000000
H 20.64264709 16.77789479 10.37885423 3829 165 0 1.00000000 1.00000000 1.00000000
H 21.85598449 17.76582458 9.66861552 3830 165 0 1.00000000 1.00000000 1.00000000
H 23.22132591 17.80206565 11.62075254 3831 165 0 1.00000000 1.00000000 1.00000000
H 22.27930090 16.49714979 12.41102700 3832 165 0 1.00000000 1.00000000 1.00000000
H 21.70668193 18.07351581 12.30474683 3833 165 0 1.00000000 1.00000000 1.00000000
C 12.29935135 25.43914782 36.89662346 3834 166 0 0.56500000 0.56500000 0.56500000
C 11.23510866 26.28789140 36.19743883 3835 166 0 0.56500000 0.56500000 0.56500000
C 11.34647617 26.24685197 34.69354934 3836 166 0 0.56500000 0.56500000 0.56500000
C 11.79566705 27.59670804 34.17497789 3837 166 0 0.56500000 0.56500000 0.56500000
C 12.11586861 27.64309924 32.69925040 3838 166 0 0.56500000 0.56500000 0.56500000
C 12.22353373 29.10004183 32.25375708 3839 166 0 0.56500000 0.56500000 0.56500000
C 12.26782958 29.30709784 30.70924584 3840 166 0 0.56500000 0.56500000 0.56500000
H 12.38625241 25.74041795 38.01214986 3841 166 0 1.00000000 1.00000000 1.00000000
H 13.37791042 25.47454571 36.56128921 3842 166 0 1.00000000 1.00000000 1.00000000
H 12.01380228 24.41024047 36.79758030 3843 166 0 1.00000000 1.00000000 1.00000000
H 11.20817778 27.32733823 36.52506293 3844 166 0 1.00000000 1.00000000 1.00000000
H 10.28729673 25.83346249 36.58969896 3845 166 0 1.00000000 1.00000000 1.00000000
H 10.39790493 25.93834347 34.26554431 3846 166 0 1.00000000 1.00000000 1.00000000
H 12.00832759 25.43444482 34.23141180 3847 166 0 1.00000000 1.00000000 1.00000000
H 12.66404121 27.83440388 34.77043677 3848 166 0 1.00000000 1.00000000 1.00000000
H 11.03198291 28.34521779 34.41626829 3849 166 0 1.00000000 1.00000000 1.00000000
H 11.32488927 27.22979239 32.08715168 3850 166 0 1.00000000 1.00000000 1.00000000
H 13.07133200 27.00632096 32.50381376 3851 166 0 1.00000000 1.00000000 1.00000000
H 13.02305771 29.64813773 32.72421288 3852 166 0 1.00000000 1.00000000 1.00000000
H 11.29102497 29.52922324 32.61783658 3853 166 0 1.00000000 1.00000000 1.00000000
H 12.11316689 30.35709433 30.43838086 3854 166 0 1.00000000 1.00000000 1.00000000
H 11.46738104 28.68470926 30.28403197 3855 166 0 1.00000000 1.00000000 1.00000000
H 13.15282061 28.89634096 30.20109885 3856 166 0 1.00000000 1.00000000 1.00000000
C 49.27756571 28.44385317 36.77650837 3857 167 0 0.56500000 0.56500000 0.56500000
C 49.49563732 27.01042851 36.37161395 3858 167 0 0.56500000 0.56500000 0.56500000
C 48.24269485 26.11596289 36.36944056 3859 167 0 0.56500000 0.56500000 0.56500000
C 47.38815481 26.21448234 35.08355849 3860 167 0 0.56500000 0.56500000 0.56500000
C 47.90355547 25.37528149 33.99645989 3861 167 0 0.56500000 0.56500000 0.56500000
C 47.16931938 25.58484647 32.65410076 3862 167 0 0.56500000 0.56500000 0.56500000
C 47.20917922 24.25157204 31.97041432 3863 167 0 0.56500000 0.56500000 0.56500000
H 49.11318495 28.52997332 37.84961724 3864 167 0 1.00000000 1.00000000 1.00000000
H 48.45829249 28.80950234 36.20845775 3865 167 0 1.00000000 1.00000000 1.00000000
H 50.12344788 29.02557142 36.66009250 3866 167 0 1.00000000 1.00000000 1.00000000
H 50.30182287 26.48252134 36.96439970 3867 167 0 1.00000000 1.00000000 1.00000000
H 49.87164522 26.97722648 35.35664163 3868 167 0 1.00000000 1.00000000 1.00000000
H 47.66316197 26.32402167 37.28100504 3869 167 0 1.00000000 1.00000000 1.00000000
H 48.54376433 25.08177955 36.42797525 3870 167 0 1.00000000 1.00000000 1.00000000
H 47.12355554 27.19708918 34.75257017 3871 167 0 1.00000000 1.00000000 1.00000000
H 46.37299322 25.85992527 35.33949501 3872 167 0 1.00000000 1.00000000 1.00000000
H 47.91043193 24.33005492 34.30096441 3873 167 0 1.00000000 1.00000000 1.00000000
H 48.91294838 25.59686206 33.78058387 3874 167 0 1.00000000 1.00000000 1.00000000
H 47.64424858 26.36105603 32.08726529 3875 167 0 1.00000000 1.00000000 1.00000000
H 46.13498339 25.83799650 32.80814673 3876 167 0 1.00000000 1.00000000 1.00000000
H 48.23931983 23.95501009 31.82498471 3877 167 0 1.00000000 1.00000000 1.00000000
H 46.67975714 24.30125459 30.98391883 3878 167 0 1.00000000 1.00000000 1.00000000
H 46.81134549 23.43955831 32.60281566 3879 167 0 1.00000000 1.00000000 1.00000000
C 46.54397636 31.49871874 23.81487256 3880 168 0 0.56500000 0.56500000 0.56500000
C 47.31091242 30.68408072 22.89203381 3881 168 0 0.56500000 0.56500000 0.56500000
C 46.63214393 29.44247959 22.39421127 3882 168 0 0.56500000 0.56500000 0.56500000
C 45.51807939 29.65494611 21.29637860 3883 168 0 0.56500000 0.56500000 0.56500000
C 44.56818865 28.42761900 21.04873107 3884 168 0 0.56500000 0.56500000 0.56500000
C 45.25070210 27.32003664 20.20703293 3885 168 0 0.56500000 0.56500000 0.56500000
C 44.29026423 26.21724248 19.77964185 3886 168 0 0.56500000 0.56500000 0.56500000
H 46.62126387 31.11275073 24.81301986 3887 168 0 1.00000000 1.00000000 1.00000000
H 45.49508443 31.34668486 23.58952932 3888 168 0 1.00000000 1.00000000 1.00000000
H 46.79224456 32.55702464 23.82509269 3889 168 0 1.00000000 1.00000000 1.00000000
H 48.33940315 30.30769847 23.23758172 3890 168 0 1.00000000 1.00000000 1.00000000
H 47.50109040 31.35987619 22.03561828 3891 168 0 1.00000000 1.00000000 1.00000000
H 46.16469843 28.84034737 23.16492929 3892 168 0 1.00000000 1.00000000 1.00000000
H 47.38172021 28.79138927 21.92084323 3893 168 0 1.00000000 1.00000000 1.00000000
H 45.95871827 30.15665424 20.42824621 3894 168 0 1.00000000 1.00000000 1.00000000
H 44.79238233 30.35082228 21.66740679 3895 168 0 1.00000000 1.00000000 1.00000000
H 43.65780804 28.67127032 20.54289941 3896 168 0 1.00000000 1.00000000 1.00000000
H 44.37638839 27.98866197 22.02856354 3897 168 0 1.00000000 1.00000000 1.00000000
H 46.01981545 26.96636636 20.85104071 3898 168 0 1.00000000 1.00000000 1.00000000
H 45.73140224 27.79051706 19.37268669 3899 168 0 1.00000000 1.00000000 1.00000000
H 44.69136015 25.60992528 18.96720895 3900 168 0 1.00000000 1.00000000 1.00000000
H 43.37391186 26.59370848 19.33408063 3901 168 0 1.00000000 1.00000000 1.00000000
H 43.92678282 25.47793859 20.57915104 3902 168 0 1.00000000 1.00000000 1.00000000
C 41.51987691 40.48757602 32.39910685 3903 169 0 0.56500000 0.56500000 0.56500000
C 41.35798641 39.02074659 32.16724765 3904 169 0 0.56500000 0.56500000 0.56500000
C 41.93274581 38.53088283 30.81511838 3905 169 0 0.56500000 0.56500000 0.56500000
C 41.65257093 37.06220642 30.72729253 3906 169 0 0.56500000 0.56500000 0.56500000
C 42.27120105 36.15388273 31.82786405 3907 169 0 0.56500000 0.56500000 0.56500000
C 43.69063250 36.52403848 32.12713223 3908 169 0 0.56500000 0.56500000 0.56500000
C 44.36514686 35.69375601 33.22260006 3909 169 0 0.56500000 0.56500000 0.56500000
H 41.04236493 40.71284566 33.36320013 3910 169 0 1.00000000 1.00000000 1.00000000
H 41.11856483 41.09407363 31.57949415 3911 169 0 1.00000000 1.00000000 1.00000000
H 42.59764145 40.75647870 32.37222486 3912 169 0 1.00000000 1.00000000 1.00000000
H 40.29825655 38.75267524 32.15726294 3913 169 0 1.00000000 1.00000000 1.00000000
H 41.73354217 38.36741888 32.95550102 3914 169 0 1.00000000 1.00000000 1.00000000
H 42.93453111 38.83025464 30.60487178 3915 169 0 1.00000000 1.00000000 1.00000000
H 41.40594111 39.03195002 29.96976004 3916 169 0 1.00000000 1.00000000 1.00000000
H 41.85760058 36.75599751 29.71533865 3917 169 0 1.00000000 1.00000000 1.00000000
H 40.54784804 36.96583647 30.68327262 3918 169 0 1.00000000 1.00000000 1.00000000
H 42.22986567 35.06379080 31.47074633 3919 169 0 1.00000000 1.00000000 1.00000000
H 41.65458529 36.30527946 32.71433564 3920 169 0 1.00000000 1.00000000 1.00000000
H 43.83454033 37.55011752 32.32003956 3921 169 0 1.00000000 1.00000000 1.00000000
H 44.21221996 36.38158372 31.19831837 3922 169 0 1.00000000 1.00000000 1.00000000
H 44.16760910 34.62717498 33.10133893 3923 169 0 1.00000000 1.00000000 1.00000000
H 43.89221295 36.11375459 34.14491790 3924 169 0 1.00000000 1.00000000 1.00000000
H 45.42153908 35.85876075 33.20949414 3925 169 0 1.00000000 1.00000000 1.00000000
C 19.05450563 18.78062257 27.63718642 3926 170 0 0.56500000 0.56500000 0.56500000
C 18.94183463 17.56531850 26.76216083 3927 170 0 0.56500000 0.56500000 0.56500000
C 17.59440751 17.56528379 25.93110481 3928 170 0 0.56500000 0.56500000 0.56500000
C 17.27767860 16.30077899 25.20778862 3929 170 0 0.56500000 0.56500000 0.56500000
C 16.03916698 16.38135094 24.36970300 3930 170 0 0.56500000 0.56500000 0.56500000
C 16.35222932 16.30375229 22.89802066 3931 170 0 0.56500000 0.56500000 0.56500000
C 16.55816657 14.86652123 22.37034034 3932 170 0 0.56500000 0.56500000 0.56500000
H 20.02985761 18.83598327 28.14722844 3933 170 0 1.00000000 1.00000000 1.00000000
H 18.28086350 18.82987506 28.42708375 3934 170 0 1.00000000 1.00000000 1.00000000
H 18.94761727 19.70594136 27.03187966 3935 170 0 1.00000000 1.00000000 1.00000000
H 19.12364289 16.67515749 27.34415798 3936 170 0 1.00000000 1.00000000 1.00000000
H 19.76814098 17.57576860 26.01234251 3937 170 0 1.00000000 1.00000000 1.00000000
H 17.69574182 18.40490984 25.17571496 3938 170 0 1.00000000 1.00000000 1.00000000
H 16.74212805 17.91495722 26.55472904 3939 170 0 1.00000000 1.00000000 1.00000000
H 17.17949943 15.59771631 25.99940085 3940 170 0 1.00000000 1.00000000 1.00000000
H 18.07037630 15.97687017 24.51780027 3941 170 0 1.00000000 1.00000000 1.00000000
H 15.52983412 17.43331549 24.62182078 3942 170 0 1.00000000 1.00000000 1.00000000
H 15.31974121 15.66183122 24.68849704 3943 170 0 1.00000000 1.00000000 1.00000000
H 17.26483633 16.85370037 22.77050185 3944 170 0 1.00000000 1.00000000 1.00000000
H 15.53869906 16.74926102 22.22675587 3945 170 0 1.00000000 1.00000000 1.00000000
H 15.72435337 14.19330081 22.38141755 3946 170 0 1.00000000 1.00000000 1.00000000
H 17.25299628 14.43571426 23.05355688 3947 170 0 1.00000000 1.00000000 1.00000000
H 16.97293654 14.73549660 21.34965618 3948 170 0 1.00000000 1.00000000 1.00000000
C -2.25241112 37.14881044 0.61661324 3949 171 0 0.56500000 0.56500000 0.56500000
C -2.62967401 36.11667995 -0.46434797 3950 171 0 0.56500000 0.56500000 0.56500000
C -2.69549850 34.65939630 0.03393176 3951 171 0 0.56500000 0.56500000 0.56500000
C -1.29548875 34.10677119 0.34284381 3952 171 0 0.56500000 0.56500000 0.56500000
C -1.42500622 32.58307795 0.54398475 3953 171 0 0.56500000 0.56500000 0.56500000
C -0.10217161 31.96390141 0.86560122 3954 171 0 0.56500000 0.56500000 0.56500000
C 0.60871342 31.73634509 -0.48613465 3955 171 0 0.56500000 0.56500000 0.56500000
H -3.03927813 37.28648283 1.39563234 3956 171 0 1.00000000 1.00000000 1.00000000
H -2.04548521 38.19288433 0.21401849 3957 171 0 1.00000000 1.00000000 1.00000000
H -1.34585799 36.84050154 1.14918015 3958 171 0 1.00000000 1.00000000 1.00000000
H -1.91606919 36.26338083 -1.35477781 3959 171 0 1.00000000 1.00000000 1.00000000
H -3.59291452 36.44943879 -0.85911350 3960 171 0 1.00000000 1.00000000 1.00000000
H -3.05660779 34.07046968 -0.87786272 3961 171 0 1.00000000 1.00000000 1.00000000
H -3.38017813 34.45543887 0.92596297 3962 171 0 1.00000000 1.00000000 1.00000000
H -0.79973142 34.61046659 1.24401776 3963 171 0 1.00000000 1.00000000 1.00000000
H -0.65657800 34.34417860 -0.55338855 3964 171 0 1.00000000 1.00000000 1.00000000
H -1.87754224 32.06573607 -0.27411168 3965 171 0 1.00000000 1.00000000 1.00000000
H -2.23731793 32.46120537 1.29967867 3966 171 0 1.00000000 1.00000000 1.00000000
H -0.12709007 30.98880314 1.33266293 3967 171 0 1.00000000 1.00000000 1.00000000
H 0.60026470 32.58640890 1.50359784 3968 171 0 1.00000000 1.00000000 1.00000000
H 1.63980271 31.39518765 -0.32362555 3969 171 0 1.00000000 1.00000000 1.00000000
H 0.63055215 32.63398011 -1.09728105 3970 171 0 1.00000000 1.00000000 1.00000000
H 0.11633617 30.94694056 -1.03101726 3971 171 0 1.00000000 1.00000000 1.00000000
C 36.76621322 50.83307783 15.92907431 3972 172 0 0.56500000 0.56500000 0.56500000
C 36.93442333 49.30853322 15.99914122 3973 172 0 0.56500000 0.56500000 0.56500000
C 38.18814922 48.71554400 15.35769681 3974 172 0 0.56500000 0.56500000 0.56500000
C 38.21742373 48.86046981 13.80958137 3975 172 0 0.56500000 0.56500000 0.56500000
C 37.15377257 48.04338585 12.95859521 3976 172 0 0.56500000 0.56500000 0.56500000
C 36.91819508 46.63256300 13.39460393 3977 172 0 0.56500000 0.56500000 0.56500000
C 38.16217747 45.77885134 13.45126664 3978 172 0 0.56500000 0.56500000 0.56500000
H 36.77652686 51.21019561 14.93247804 3979 172 0 1.00000000 1.00000000 1.00000000
H 37.59962066 51.33386678 16.47714818 3980 172 0 1.00000000 1.00000000 1.00000000
H 35.79045157 51.03767340 16.38304743 3981 172 0 1.00000000 1.00000000 1.00000000
H 36.00588106 48.89496341 15.62054649 3982 172 0 1.00000000 1.00000000 1.00000000
H 36.94882394 49.01089121 17.06266607 3983 172 0 1.00000000 1.00000000 1.00000000
H 38.14330936 47.64464597 15.63018369 3984 172 0 1.00000000 1.00000000 1.00000000
H 39.04371427 49.13564059 15.98387767 3985 172 0 1.00000000 1.00000000 1.00000000
H 39.18030495 48.51673254 13.38725632 3986 172 0 1.00000000 1.00000000 1.00000000
H 38.14995011 49.92916054 13.58647568 3987 172 0 1.00000000 1.00000000 1.00000000
H 37.59177586 47.95608771 11.96494424 3988 172 0 1.00000000 1.00000000 1.00000000
H 36.21209402 48.49682786 12.93001948 3989 172 0 1.00000000 1.00000000 1.00000000
H 36.29059160 46.11080628 12.65818157 3990 172 0 1.00000000 1.00000000 1.00000000
H 36.41154824 46.61407932 14.38056864 3991 172 0 1.00000000 1.00000000 1.00000000
H 37.83127252 44.78758899 13.86419664 3992 172 0 1.00000000 1.00000000 1.00000000
H 38.95082977 46.05587031 14.11105783 3993 172 0 1.00000000 1.00000000 1.00000000
H 38.55023755 45.57415773 12.51494249 3994 172 0 1.00000000 1.00000000 1.00000000
C 17.06287708 45.76989280 36.96427680 3995 173 0 0.56500000 0.56500000 0.56500000
C 17.62776992 46.73691430 38.05590539 3996 173 0 0.56500000 0.56500000 0.56500000
C 19.01075156 46.58365430 38.50877364 3997 173 0 0.56500000 0.56500000 0.56500000
C 19.43270993 47.28513756 39.82741720 3998 173 0 0.56500000 0.56500000 0.56500000
C 19.66723550 48.81004096 39.68712562 3999 173 0 0.56500000 0.56500000 0.56500000
C 20.00898824 49.49300981 41.03549331 4000 173 0 0.56500000 0.56500000 0.56500000
C 19.93302149 51.04536032 40.78565469 4001 173 0 0.56500000 0.56500000 0.56500000
H 17.82779412 45.64974362 36.17454815 4002 173 0 1.00000000 1.00000000 1.00000000
H 16.09890517 46.11214090 36.59308436 4003 173 0 1.00000000 1.00000000 1.00000000
H 16.85774171 44.75985607 37.26984384 4004 173 0 1.00000000 1.00000000 1.00000000
H 16.89387985 46.64312360 38.90154138 4005 173 0 1.00000000 1.00000000 1.00000000
H 17.46622089 47.76568091 37.67098468 4006 173 0 1.00000000 1.00000000 1.00000000
H 19.63939313 46.83193021 37.66566214 4007 173 0 1.00000000 1.00000000 1.00000000
H 19.11342756 45.51157126 38.72693512 4008 173 0 1.00000000 1.00000000 1.00000000
H 20.40025352 46.81367943 40.14440042 4009 173 0 1.00000000 1.00000000 1.00000000
H 18.75395951 46.99602454 40.66386533 4010 173 0 1.00000000 1.00000000 1.00000000
H 18.74234284 49.33727166 39.33641039 4011 173 0 1.00000000 1.00000000 1.00000000
H 20.43339477 48.95443314 38.86896341 4012 173 0 1.00000000 1.00000000 1.00000000
H 20.98526244 49.29604011 41.33540262 4013 173 0 1.00000000 1.00000000 1.00000000
H 19.31890723 49.17031582 41.77350046 4014 173 0 1.00000000 1.00000000 1.00000000
H 20.60110049 51.32598021 39.98689322 4015 173 0 1.00000000 1.00000000 1.00000000
H 20.29653540 51.59032981 41.66977036 4016 173 0 1.00000000 1.00000000 1.00000000
H 19.00019843 51.53578032 40.55808011 4017 173 0 1.00000000 1.00000000 1.00000000
C 47.65842355 35.47766035 21.76260323 4018 174 0 0.56500000 0.56500000 0.56500000
C 46.36013703 36.07880460 22.34077642 4019 174 0 0.56500000 0.56500000 0.56500000
C 45.37670682 36.84343615 21.41208068 4020 174 0 0.56500000 0.56500000 0.56500000
C 44.03780731 37.20501131 22.09770676 4021 174 0 0.56500000 0.56500000 0.56500000
C 43.06482085 37.82877678 21.13458225 4022 174 0 0.56500000 0.56500000 0.56500000
C 42.81445113 36.99809575 19.95727482 4023 174 0 0.56500000 0.56500000 0.56500000
C 41.45029775 37.25299176 19.21428053 4024 174 0 0.56500000 0.56500000 0.56500000
H 48.20951101 34.87351111 22.56085135 4025 174 0 1.00000000 1.00000000 1.00000000
H 48.34574959 36.30279464 21.52485930 4026 174 0 1.00000000 1.00000000 1.00000000
H 47.41171913 34.83721867 20.93399639 4027 174 0 1.00000000 1.00000000 1.00000000
H 46.62972960 36.64197700 23.24571763 4028 174 0 1.00000000 1.00000000 1.00000000
H 45.79908427 35.31296841 22.71793790 4029 174 0 1.00000000 1.00000000 1.00000000
H 45.16570335 36.29263579 20.53096391 4030 174 0 1.00000000 1.00000000 1.00000000
H 45.88835287 37.79734464 21.11075284 4031 174 0 1.00000000 1.00000000 1.00000000
H 44.28506146 37.65141702 23.09705241 4032 174 0 1.00000000 1.00000000 1.00000000
H 43.60349197 36.20645343 22.27977056 4033 174 0 1.00000000 1.00000000 1.00000000
H 43.37384438 38.85683096 20.84711812 4034 174 0 1.00000000 1.00000000 1.00000000
H 42.10799954 38.07017948 21.70959146 4035 174 0 1.00000000 1.00000000 1.00000000
H 42.84373598 36.00011409 20.30524322 4036 174 0 1.00000000 1.00000000 1.00000000
H 43.61801068 37.09039181 19.17993349 4037 174 0 1.00000000 1.00000000 1.00000000
H 41.38900137 37.06308874 18.14260257 4038 174 0 1.00000000 1.00000000 1.00000000
H 41.11580118 38.26016785 19.36766966 4039 174 0 1.00000000 1.00000000 1.00000000
H 40.55597453 36.74876009 19.69103717 4040 174 0 1.00000000 1.00000000 1.00000000
C 6.16769680 47.73211220 21.24380165 4041 175 0 0.56500000 0.56500000 0.56500000
C 6.96092911 47.68278202 22.53555712 4042 175 0 0.56500000 0.56500000 0.56500000
C 8.05153163 46.64948398 22.58884457 4043 175 0 0.56500000 0.56500000 0.56500000
C 8.66987400 46.31754655 23.93406551 4044 175 0 0.56500000 0.56500000 0.56500000
C 9.90160365 45.35663779 23.91469788 4045 175 0 0.56500000 0.56500000 0.56500000
C 9.64284607 43.86031603 23.59935511 4046 175 0 0.56500000 0.56500000 0.56500000
C 10.96436433 43.04022507 23.67536417 4047 175 0 0.56500000 0.56500000 0.56500000
H 6.88825443 47.73574639 20.41783690 4048 175 0 1.00000000 1.00000000 1.00000000
H 5.50330205 48.60249485 21.26253472 4049 175 0 1.00000000 1.00000000 1.00000000
H 5.47733121 46.84353610 21.14045771 4050 175 0 1.00000000 1.00000000 1.00000000
H 6.28803105 47.64534688 23.42944616 4051 175 0 1.00000000 1.00000000 1.00000000
H 7.38772748 48.68995257 22.65123576 4052 175 0 1.00000000 1.00000000 1.00000000
H 8.91957375 47.09454567 21.95232584 4053 175 0 1.00000000 1.00000000 1.00000000
H 7.80626898 45.68703853 21.96788340 4054 175 0 1.00000000 1.00000000 1.00000000
H 7.93669823 45.85165417 24.61543875 4055 175 0 1.00000000 1.00000000 1.00000000
H 8.98289070 47.25627555 24.35020603 4056 175 0 1.00000000 1.00000000 1.00000000
H 10.33227806 45.42445566 24.88881082 4057 175 0 1.00000000 1.00000000 1.00000000
H 10.70067195 45.82709919 23.27330366 4058 175 0 1.00000000 1.00000000 1.00000000
H 9.21401350 43.88404575 22.58878151 4059 175 0 1.00000000 1.00000000 1.00000000
H 8.88104348 43.44787762 24.34542659 4060 175 0 1.00000000 1.00000000 1.00000000
H 11.76426198 43.65196878 23.16162086 4061 175 0 1.00000000 1.00000000 1.00000000
H 10.88529703 42.09155826 23.17445030 4062 175 0 1.00000000 1.00000000 1.00000000
H 11.27898657 42.96977309 24.70522135 4063 175 0 1.00000000 1.00000000 1.00000000
C 22.16516289 41.93257277 -1.19565486 4064 176 0 0.56500000 0.56500000 0.56500000
C 22.03737140 40.87838488 -2.31892882 4065 176 0 0.56500000 0.56500000 0.56500000
C 21.37419045 41.43317907 -3.60460597 4066 176 0 0.56500000 0.56500000 0.56500000
C 21.17286583 40.22609065 -4.64084650 4067 176 0 0.56500000 0.56500000 0.56500000
C 22.34483864 39.70020383 -5.42721634 4068 176 0 0.56500000 0.56500000 0.56500000
C 22.17543084 38.48149597 -6.24326750 4069 176 0 0.56500000 0.56500000 0.56500000
C 21.37824498 38.68100786 -7.51615504 4070 176 0 0.56500000 0.56500000 0.56500000
H 21.25070056 42.27119613 -0.75629055 4071 176 0 1.00000000 1.00000000 1.00000000
H 22.58470417 42.87221781 -1.55934465 4072 176 0 1.00000000 1.00000000 1.00000000
H 22.67916706 41.49048981 -0.33211020 4073 176 0 1.00000000 1.00000000 1.00000000
H 21.43750978 39.96898511 -1.94538298 4074 176 0 1.00000000 1.00000000 1.00000000
H 23.08478040 40.53033076 -2.59745911 4075 176 0 1.00000000 1.00000000 1.00000000
H 22.06126608 42.14606989 -4.08225092 4076 176 0 1.00000000 1.00000000 1.00000000
H 20.41388373 41.87303644 -3.41247661 4077 176 0 1.00000000 1.00000000 1.00000000
H 20.33785924 40.43181252 -5.33199480 4078 176 0 1.00000000 1.00000000 1.00000000
H 20.77487099 39.38218275 -4.03818149 4079 176 0 1.00000000 1.00000000 1.00000000
H 23.16260934 39.51827889 -4.74225903 4080 176 0 1.00000000 1.00000000 1.00000000
H 22.68959335 40.42495241 -6.18250138 4081 176 0 1.00000000 1.00000000 1.00000000
H 21.76067765 37.73039090 -5.56152890 4082 176 0 1.00000000 1.00000000 1.00000000
H 23.15774698 38.12690792 -6.57732461 4083 176 0 1.00000000 1.00000000 1.00000000
H 20.72381461 39.53242130 -7.35580961 4084 176 0 1.00000000 1.00000000 1.00000000
H 20.67515820 37.81499209 -7.61703389 4085 176 0 1.00000000 1.00000000 1.00000000
H 21.95698610 38.75738674 -8.43951854 4086 176 0 1.00000000 1.00000000 1.00000000
C 15.56345005 33.83095681 24.23738001 4087 177 0 0.56500000 0.56500000 0.56500000
C 14.30803416 34.70255233 24.17612856 4088 177 0 0.56500000 0.56500000 0.56500000
C 13.94352876 35.16814761 22.74847591 4089 177 0 0.56500000 0.56500000 0.56500000
C 12.96798760 36.33548555 22.60326528 4090 177 0 0.56500000 0.56500000 0.56500000
C 11.61953408 36.10951108 23.36706064 4091 177 0 0.56500000 0.56500000 0.56500000
C 10.70865549 34.97055328 22.82676606 4092 177 0 0.56500000 0.56500000 0.56500000
C 9.36795590 34.86716795 23.60475955 4093 177 0 0.56500000 0.56500000 0.56500000
H 15.75391184 33.46134318 25.24840308 4094 177 0 1.00000000 1.00000000 1.00000000
H 16.41749935 34.50073301 23.97264972 4095 177 0 1.00000000 1.00000000 1.00000000
H 15.35011782 32.92982088 23.58240765 4096 177 0 1.00000000 1.00000000 1.00000000
H 14.41653326 35.61099213 24.84536391 4097 177 0 1.00000000 1.00000000 1.00000000
H 13.46600021 34.12711784 24.63441811 4098 177 0 1.00000000 1.00000000 1.00000000
H 13.73584904 34.28410082 22.12820887 4099 177 0 1.00000000 1.00000000 1.00000000
H 14.95026998 35.48246979 22.32550719 4100 177 0 1.00000000 1.00000000 1.00000000
H 12.79316774 36.44809959 21.48595463 4101 177 0 1.00000000 1.00000000 1.00000000
H 13.42509189 37.18643515 23.12215235 4102 177 0 1.00000000 1.00000000 1.00000000
H 11.01172972 37.01710649 23.40836658 4103 177 0 1.00000000 1.00000000 1.00000000
H 12.00553265 35.84705196 24.39624302 4104 177 0 1.00000000 1.00000000 1.00000000
H 11.25933330 34.02880612 22.91229419 4105 177 0 1.00000000 1.00000000 1.00000000
H 10.60115775 35.03459403 21.72546967 4106 177 0 1.00000000 1.00000000 1.00000000
H 9.53435780 34.60542288 24.68246355 4107 177 0 1.00000000 1.00000000 1.00000000
H 8.66225282 34.22741540 23.14341314 4108 177 0 1.00000000 1.00000000 1.00000000
H 8.85977407 35.82747551 23.59374962 4109 177 0 1.00000000 1.00000000 1.00000000
C 29.04110871 18.73955528 12.35210449 4110 178 0 0.56500000 0.56500000 0.56500000
C 28.10181001 17.79379254 11.65497329 4111 178 0 0.56500000 0.56500000 0.56500000
C 27.41265999 16.81008712 12.62511142 4112 178 0 0.56500000 0.56500000 0.56500000
C 26.43975426 15.93675027 11.87454679 4113 178 0 0.56500000 0.56500000 0.56500000
C 27.12128260 14.62309868 11.57366650 4114 178 0 0.56500000 0.56500000 0.56500000
C 26.29978384 13.67794884 10.68754784 4115 178 0 0.56500000 0.56500000 0.56500000
C 25.08143876 12.94000591 11.35416100 4116 178 0 0.56500000 0.56500000 0.56500000
H 30.06204632 18.31885976 12.51792388 4117 178 0 1.00000000 1.00000000 1.00000000
H 28.66526752 19.10961522 13.29680460 4118 178 0 1.00000000 1.00000000 1.00000000
H 29.20587541 19.62565601 11.68023238 4119 178 0 1.00000000 1.00000000 1.00000000
H 28.65645868 17.38237007 10.82408515 4120 178 0 1.00000000 1.00000000 1.00000000
H 27.27166922 18.39472450 11.27489838 4121 178 0 1.00000000 1.00000000 1.00000000
H 26.93681642 17.44989938 13.39682086 4122 178 0 1.00000000 1.00000000 1.00000000
H 28.21769952 16.25338691 13.15065619 4123 178 0 1.00000000 1.00000000 1.00000000
H 26.01292845 16.41551326 10.95285721 4124 178 0 1.00000000 1.00000000 1.00000000
H 25.56344659 15.75294977 12.52805931 4125 178 0 1.00000000 1.00000000 1.00000000
H 27.30524829 14.15758930 12.53984005 4126 178 0 1.00000000 1.00000000 1.00000000
H 28.08122166 14.78149285 11.05874973 4127 178 0 1.00000000 1.00000000 1.00000000
H 26.87972559 12.80291228 10.28480475 4128 178 0 1.00000000 1.00000000 1.00000000
H 25.91788791 14.21805716 9.79992258 4129 178 0 1.00000000 1.00000000 1.00000000
H 25.20926175 12.03950985 11.91315282 4130 178 0 1.00000000 1.00000000 1.00000000
H 24.30068343 12.67344135 10.62254693 4131 178 0 1.00000000 1.00000000 1.00000000
H 24.51230094 13.57908014 12.10462793 4132 178 0 1.00000000 1.00000000 1.00000000
C 17.50180332 19.55504668 33.20631240 4133 179 0 0.56500000 0.56500000 0.56500000
C 18.45775159 18.78108255 32.34586857 4134 179 0 0.56500000 0.56500000 0.56500000
C 18.90233694 17.46771025 32.98991519 4135 179 0 0.56500000 0.56500000 0.56500000
C 20.18263222 16.88476931 32.34870903 4136 179 0 0.56500000 0.56500000 0.56500000
C 20.49044257 15.46134283 32.96256742 4137 179 0 0.56500000 0.56500000 0.56500000
C 19.60601072 14.26902759 32.43959213 4138 179 0 0.56500000 0.56500000 0.56500000
C 20.13202874 12.93617597 32.98769801 4139 179 0 0.56500000 0.56500000 0.56500000
H 17.18056333 20.44943907 32.67034496 4140 179 0 1.00000000 1.00000000 1.00000000
H 18.01700878 19.94462434 34.18048668 4141 179 0 1.00000000 1.00000000 1.00000000
H 16.69864907 18.98249306 33.55437645 4142 179 0 1.00000000 1.00000000 1.00000000
H 19.30813363 19.36722914 32.03468873 4143 179 0 1.00000000 1.00000000 1.00000000
H 17.89846960 18.56935895 31.39414940 4144 179 0 1.00000000 1.00000000 1.00000000
H 18.10273910 16.69028949 32.79855852 4145 179 0 1.00000000 1.00000000 1.00000000
H 19.00589362 17.61116681 34.06397231 4146 179 0 1.00000000 1.00000000 1.00000000
H 21.07093758 17.48524252 32.50015780 4147 179 0 1.00000000 1.00000000 1.00000000
H 20.09459447 16.83970091 31.28123818 4148 179 0 1.00000000 1.00000000 1.00000000
H 20.32065045 15.45955619 34.02794097 4149 179 0 1.00000000 1.00000000 1.00000000
H 21.53858267 15.27182046 32.87567906 4150 179 0 1.00000000 1.00000000 1.00000000
H 19.52102908 14.22335002 31.29065809 4151 179 0 1.00000000 1.00000000 1.00000000
H 18.54143333 14.28066485 32.81152372 4152 179 0 1.00000000 1.00000000 1.00000000
H 19.66032704 12.03435048 32.59313899 4153 179 0 1.00000000 1.00000000 1.00000000
H 19.95382848 12.92729272 34.09723435 4154 179 0 1.00000000 1.00000000 1.00000000
H 21.23392781 12.87923996 32.91613320 4155 179 0 1.00000000 1.00000000 1.00000000
C 43.74046596 13.38771269 27.62324547 4156 180 0 0.56500000 0.56500000 0.56500000
C 44.77464034 13.95229561 26.62009445 4157 180 0 0.56500000 0.56500000 0.56500000
C 46.18016535 13.22900860 26.88964332 4158 180 0 0.56500000 0.56500000 0.56500000
C 46.65454008 13.40520190 28.28888987 4159 180 0 0.56500000 0.56500000 0.56500000
C 48.08485888 12.79550168 28.51200979 4160 180 0 0.56500000 0.56500000 0.56500000
C 49.30385019 13.61694543 28.02858895 4161 180 0 0.56500000 0.56500000 0.56500000
C 49.65398773 14.85746762 28.91014785 4162 180 0 0.56500000 0.56500000 0.56500000
H 43.85039087 12.26084235 27.62483996 4163 180 0 1.00000000 1.00000000 1.00000000
H 42.72253442 13.66146102 27.35642028 4164 180 0 1.00000000 1.00000000 1.00000000
H 44.01234240 13.85860651 28.58181056 4165 180 0 1.00000000 1.00000000 1.00000000
H 44.96242367 15.05183004 26.78355541 4166 180 0 1.00000000 1.00000000 1.00000000
H 44.47909109 13.86328184 25.49489073 4167 180 0 1.00000000 1.00000000 1.00000000
H 46.92095203 13.50364163 26.09145579 4168 180 0 1.00000000 1.00000000 1.00000000
H 46.06833381 12.12234044 26.80497445 4169 180 0 1.00000000 1.00000000 1.00000000
H 45.97505412 12.75954884 28.81290450 4170 180 0 1.00000000 1.00000000 1.00000000
H 46.61519532 14.38391543 28.70820989 4171 180 0 1.00000000 1.00000000 1.00000000
H 48.01604891 11.82397935 27.96778570 4172 180 0 1.00000000 1.00000000 1.00000000
H 48.19614343 12.60618808 29.53958834 4173 180 0 1.00000000 1.00000000 1.00000000
H 49.04727843 14.03152797 27.04767891 4174 180 0 1.00000000 1.00000000 1.00000000
H 50.22619046 13.00937680 27.90757769 4175 180 0 1.00000000 1.00000000 1.00000000
H 48.92074158 15.68088018 28.79078524 4176 180 0 1.00000000 1.00000000 1.00000000
H 50.63285785 15.24838018 28.55059693 4177 180 0 1.00000000 1.00000000 1.00000000
H 49.75439784 14.55468545 29.97907394 4178 180 0 1.00000000 1.00000000 1.00000000
C 37.38142142 15.77379256 29.83038748 4179 181 0 0.56500000 0.56500000 0.56500000
C 35.94634351 15.87058865 29.37598537 4180 181 0 0.56500000 0.56500000 0.56500000
C 35.67285098 16.91109303 28.33899764 4181 181 0 0.56500000 0.56500000 0.56500000
C 36.29906333 16.72356090 26.96944729 4182 181 0 0.56500000 0.56500000 0.56500000
C 35.50964837 17.44902054 25.88909812 4183 181 0 0.56500000 0.56500000 0.56500000
C 36.08185038 17.29802002 24.48766731 4184 181 0 0.56500000 0.56500000 0.56500000
C 35.30419559 18.12024028 23.41736423 4185 181 0 0.56500000 0.56500000 0.56500000
H 37.98018079 15.23292587 29.03329971 4186 181 0 1.00000000 1.00000000 1.00000000
H 37.47237254 15.17391700 30.71145970 4187 181 0 1.00000000 1.00000000 1.00000000
H 37.82151091 16.78834784 30.02591338 4188 181 0 1.00000000 1.00000000 1.00000000
H 35.38398113 16.15276534 30.33302672 4189 181 0 1.00000000 1.00000000 1.00000000
H 35.61112185 14.89568984 28.95635919 4190 181 0 1.00000000 1.00000000 1.00000000
H 36.09711566 17.87332423 28.61852686 4191 181 0 1.00000000 1.00000000 1.00000000
H 34.56119646 17.03293191 28.17041217 4192 181 0 1.00000000 1.00000000 1.00000000
H 36.52971913 15.64007246 26.72486440 4193 181 0 1.00000000 1.00000000 1.00000000
H 37.25253309 17.22845840 26.96353820 4194 181 0 1.00000000 1.00000000 1.00000000
H 35.32839100 18.48294970 26.14307811 4195 181 0 1.00000000 1.00000000 1.00000000
H 34.51363778 16.95705646 25.85955940 4196 181 0 1.00000000 1.00000000 1.00000000
H 36.04503191 16.19558856 24.20930193 4197 181 0 1.00000000 1.00000000 1.00000000
H 37.12542400 17.58071817 24.44107924 4198 181 0 1.00000000 1.00000000 1.00000000
H 35.42718580 19.16566352 23.69376397 4199 181 0 1.00000000 1.00000000 1.00000000
H 34.27566238 17.83181262 23.33584245 4200 181 0 1.00000000 1.00000000 1.00000000
H 35.79461871 18.08239853 22.41951774 4201 181 0 1.00000000 1.00000000 1.00000000
C 3.44751428 36.67518622 7.53027824 4202 182 0 0.56500000 0.56500000 0.56500000
C 3.84595304 36.30862093 6.10291636 4203 182 0 0.56500000 0.56500000 0.56500000
C 5.07397237 35.41936443 6.01321549 4204 182 0 0.56500000 0.56500000 0.56500000
C 5.72659944 35.40460845 4.60480259 4205 182 0 0.56500000 0.56500000 0.56500000
C 4.83857381 34.70705314 3.52874932 4206 182 0 0.56500000 0.56500000 0.56500000
C 4.58728986 33.23980252 3.88974588 4207 182 0 0.56500000 0.56500000 0.56500000
C 3.90861980 32.40688551 2.75830184 4208 182 0 0.56500000 0.56500000 0.56500000
H 2.71995394 37.41944326 7.57009289 4209 182 0 1.00000000 1.00000000 1.00000000
H 4.33619566 37.07243550 8.01637665 4210 182 0 1.00000000 1.00000000 1.00000000
H 3.10260867 35.80808801 8.07779229 4211 182 0 1.00000000 1.00000000 1.00000000
H 3.88265310 37.19779297 5.48109126 4212 182 0 1.00000000 1.00000000 1.00000000
H 2.97897536 35.68908550 5.61874827 4213 182 0 1.00000000 1.00000000 1.00000000
H 4.79552701 34.39966392 6.38132177 4214 182 0 1.00000000 1.00000000 1.00000000
H 5.81393358 35.86852919 6.73838820 4215 182 0 1.00000000 1.00000000 1.00000000
H 6.64836698 34.78541966 4.68638264 4216 182 0 1.00000000 1.00000000 1.00000000
H 5.92065342 36.37380140 4.34046670 4217 182 0 1.00000000 1.00000000 1.00000000
H 5.38272767 34.69527709 2.53907499 4218 182 0 1.00000000 1.00000000 1.00000000
H 3.86705721 35.16274215 3.37070925 4219 182 0 1.00000000 1.00000000 1.00000000
H 4.09953427 33.13727502 4.82350041 4220 182 0 1.00000000 1.00000000 1.00000000
H 5.55500209 32.80925775 4.07699697 4221 182 0 1.00000000 1.00000000 1.00000000
H 3.57667899 31.38705303 3.10887709 4222 182 0 1.00000000 1.00000000 1.00000000
H 4.62607809 32.20094458 1.98217354 4223 182 0 1.00000000 1.00000000 1.00000000
H 3.08752767 32.95234025 2.35023448 4224 182 0 1.00000000 1.00000000 1.00000000
C 36.05003376 12.31788493 -6.96554273 4225 183 0 0.56500000 0.56500000 0.56500000
C 36.38357016 11.53443371 -5.69377724 4226 183 0 0.56500000 0.56500000 0.56500000
C 37.58923214 12.28214873 -5.06371952 4227 183 0 0.56500000 0.56500000 0.56500000
C 38.88446722 12.36903874 -5.94040383 4228 183 0 0.56500000 0.56500000 0.56500000
C 39.51631684 10.97524815 -6.33574686 4229 183 0 0.56500000 0.56500000 0.56500000
C 39.66507684 10.07225185 -5.14184236 4230 183 0 0.56500000 0.56500000 0.56500000
C 40.28410450 8.72213625 -5.45722342 4231 183 0 0.56500000 0.56500000 0.56500000
H 35.79952026 13.40276987 -6.79779043 4232 183 0 1.00000000 1.00000000 1.00000000
H 35.16951734 11.86410304 -7.35207012 4233 183 0 1.00000000 1.00000000 1.00000000
H 36.88793147 12.21125570 -7.67587129 4234 183 0 1.00000000 1.00000000 1.00000000
H 36.49788300 10.44993042 -5.94101798 4235 183 0 1.00000000 1.00000000 1.00000000
H 35.60889554 11.63749029 -4.90879914 4236 183 0 1.00000000 1.00000000 1.00000000
H 37.87308287 11.74802175 -4.15774614 4237 183 0 1.00000000 1.00000000 1.00000000
H 37.13839471 13.32462029 -4.83443853 4238 183 0 1.00000000 1.00000000 1.00000000
H 39.57918714 13.03501739 -5.43594833 4239 183 0 1.00000000 1.00000000 1.00000000
H 38.57540360 12.89189042 -6.82502530 4240 183 0 1.00000000 1.00000000 1.00000000
H 40.49509026 11.14328892 -6.82305757 4241 183 0 1.00000000 1.00000000 1.00000000
H 38.89543100 10.42099152 -7.02451074 4242 183 0 1.00000000 1.00000000 1.00000000
H 38.69192746 10.11091910 -4.67517835 4243 183 0 1.00000000 1.00000000 1.00000000
H 40.35845224 10.63722395 -4.41444711 4244 183 0 1.00000000 1.00000000 1.00000000
H 39.56196209 7.99428979 -5.79181202 4245 183 0 1.00000000 1.00000000 1.00000000
H 40.81531796 8.37474978 -4.60107058 4246 183 0 1.00000000 1.00000000 1.00000000
H 41.09028916 8.82787494 -6.21101908 4247 183 0 1.00000000 1.00000000 1.00000000
C 0.61330468 16.43084519 3.16757774 4248 184 0 0.56500000 0.56500000 0.56500000
C 1.52398359 17.33415428 2.29352381 4249 184 0 0.56500000 0.56500000 0.56500000
C 0.76855600 18.63675687 2.06088841 4250 184 0 0.56500000 0.56500000 0.56500000
C 1.60211359 19.79833761 1.49923056 4251 184 0 0.56500000 0.56500000 0.56500000
C 0.91560414 21.15981351 1.58546968 4252 184 0 0.56500000 0.56500000 0.56500000
C 0.72906430 21.87651895 0.23373699 4253 184 0 0.56500000 0.56500000 0.56500000
C 2.04184056 22.53243981 -0.22799459 4254 184 0 0.56500000 0.56500000 0.56500000
H 0.73724884 16.48540594 4.25571264 4255 184 0 1.00000000 1.00000000 1.00000000
H 0.81221916 15.32888156 3.01989479 4256 184 0 1.00000000 1.00000000 1.00000000
H -0.45209316 16.47229721 2.89857627 4257 184 0 1.00000000 1.00000000 1.00000000
H 1.89505065 16.93187429 1.30214918 4258 184 0 1.00000000 1.00000000 1.00000000
H 2.46019474 17.59293759 2.84172908 4259 184 0 1.00000000 1.00000000 1.00000000
H 0.53445436 19.07181731 3.05002162 4260 184 0 1.00000000 1.00000000 1.00000000
H -0.14767443 18.47414269 1.56858229 4261 184 0 1.00000000 1.00000000 1.00000000
H 1.63474066 19.61404896 0.39158993 4262 184 0 1.00000000 1.00000000 1.00000000
H 2.60091002 19.82581976 1.89133144 4263 184 0 1.00000000 1.00000000 1.00000000
H 1.43217037 21.84803544 2.25783069 4264 184 0 1.00000000 1.00000000 1.00000000
H 0.02639703 21.06618623 2.23444950 4265 184 0 1.00000000 1.00000000 1.00000000
H 0.05442702 22.71199867 0.39787280 4266 184 0 1.00000000 1.00000000 1.00000000
H 0.37177169 21.21815870 -0.55808310 4267 184 0 1.00000000 1.00000000 1.00000000
H 2.17978183 23.58232225 0.17986805 4268 184 0 1.00000000 1.00000000 1.00000000
H 2.03901100 22.77207669 -1.27821803 4269 184 0 1.00000000 1.00000000 1.00000000
H 2.90801390 21.85058960 -0.16447334 4270 184 0 1.00000000 1.00000000 1.00000000
C 36.83739429 38.13482856 -0.05001212 4271 185 0 0.56500000 0.56500000 0.56500000
C 35.83497873 38.51468173 1.01273039 4272 185 0 0.56500000 0.56500000 0.56500000
C 35.00895972 39.70168237 0.79681909 4273 185 0 0.56500000 0.56500000 0.56500000
C 33.73414415 39.74553268 1.67237292 4274 185 0 0.56500000 0.56500000 0.56500000
C 32.78953442 40.88975070 1.30349752 4275 185 0 0.56500000 0.56500000 0.56500000
C 31.80869588 41.12574183 2.43671535 4276 185 0 0.56500000 0.56500000 0.56500000
C 32.42126424 41.84165379 3.69587109 4277 185 0 0.56500000 0.56500000 0.56500000
H 36.38844086 38.17530307 -1.04412057 4278 185 0 1.00000000 1.00000000 1.00000000
H 37.19928744 37.13457837 0.04327003 4279 185 0 1.00000000 1.00000000 1.00000000
H 37.84346287 38.67433864 -0.08708381 4280 185 0 1.00000000 1.00000000 1.00000000
H 36.41103562 38.61712808 2.01072038 4281 185 0 1.00000000 1.00000000 1.00000000
H 35.14570025 37.69757691 1.26419168 4282 185 0 1.00000000 1.00000000 1.00000000
H 34.68536988 39.61001362 -0.25448850 4283 185 0 1.00000000 1.00000000 1.00000000
H 35.65815821 40.59591813 0.92607299 4284 185 0 1.00000000 1.00000000 1.00000000
H 34.07411633 39.88802417 2.68342096 4285 185 0 1.00000000 1.00000000 1.00000000
H 33.15948347 38.77356452 1.49142532 4286 185 0 1.00000000 1.00000000 1.00000000
H 32.41733459 40.67714246 0.28616051 4287 185 0 1.00000000 1.00000000 1.00000000
H 33.43182802 41.74450214 1.13370687 4288 185 0 1.00000000 1.00000000 1.00000000
H 31.39162133 40.11835149 2.64696063 4289 185 0 1.00000000 1.00000000 1.00000000
H 30.87620214 41.65592055 2.12380693 4290 185 0 1.00000000 1.00000000 1.00000000
H 33.33918021 42.36990477 3.43559661 4291 185 0 1.00000000 1.00000000 1.00000000
H 32.76340899 41.03320840 4.42718343 4292 185 0 1.00000000 1.00000000 1.00000000
H 31.72348889 42.51013568 4.12527158 4293 185 0 1.00000000 1.00000000 1.00000000
C 28.79334289 20.87593386 4.54499732 4294 186 0 0.56500000 0.56500000 0.56500000
C 29.25438296 19.96614421 3.39948242 4295 186 0 0.56500000 0.56500000 0.56500000
C 30.72076318 20.09235349 3.03842887 4296 186 0 0.56500000 0.56500000 0.56500000
C 31.09901921 21.47375947 2.57789756 4297 186 0 0.56500000 0.56500000 0.56500000
C 32.63407139 21.67825194 2.64920249 4298 186 0 0.56500000 0.56500000 0.56500000
C 33.20391514 22.95803884 1.93903689 4299 186 0 0.56500000 0.56500000 0.56500000
C 34.62224760 23.30125152 2.27623385 4300 186 0 0.56500000 0.56500000 0.56500000
H 28.45062581 21.87164474 4.26760573 4301 186 0 1.00000000 1.00000000 1.00000000
H 29.63762702 21.12622759 5.29177384 4302 186 0 1.00000000 1.00000000 1.00000000
H 27.92366395 20.41597932 5.02153754 4303 186 0 1.00000000 1.00000000 1.00000000
H 28.64032180 20.23336081 2.50778997 4304 186 0 1.00000000 1.00000000 1.00000000
H 29.02899649 18.90483235 3.68287823 4305 186 0 1.00000000 1.00000000 1.00000000
H 30.99681159 19.30718488 2.34974070 4306 186 0 1.00000000 1.00000000 1.00000000
H 31.29886493 19.69258208 3.89052702 4307 186 0 1.00000000 1.00000000 1.00000000
H 30.55833443 22.22570468 3.16699063 4308 186 0 1.00000000 1.00000000 1.00000000
H 30.92325072 21.53048452 1.49955414 4309 186 0 1.00000000 1.00000000 1.00000000
H 33.04864836 20.80154353 2.16808703 4310 186 0 1.00000000 1.00000000 1.00000000
H 33.02644355 21.75323438 3.74630629 4311 186 0 1.00000000 1.00000000 1.00000000
H 32.55622192 23.78968872 2.25452010 4312 186 0 1.00000000 1.00000000 1.00000000
H 32.96267620 22.87192745 0.82645810 4313 186 0 1.00000000 1.00000000 1.00000000
H 34.96813676 24.20889107 1.76872584 4314 186 0 1.00000000 1.00000000 1.00000000
H 35.33015397 22.48805205 2.02785195 4315 186 0 1.00000000 1.00000000 1.00000000
H 34.67793775 23.68339751 3.34435971 4316 186 0 1.00000000 1.00000000 1.00000000
C 8.96059321 6.57301009 30.73582781 4317 187 0 0.56500000 0.56500000 0.56500000
C 9.46368706 7.89737572 31.33238088 4318 187 0 0.56500000 0.56500000 0.56500000
C 10.67304463 7.68898843 32.21284768 4319 187 0 0.56500000 0.56500000 0.56500000
C 12.07182221 7.25763655 31.60492844 4320 187 0 0.56500000 0.56500000 0.56500000
C 12.89730934 6.49875410 32.64428537 4321 187 0 0.56500000 0.56500000 0.56500000
C 14.02277317 5.63620629 32.11026159 4322 187 0 0.56500000 0.56500000 0.56500000
C 14.94146596 6.33997546 31.11095573 4323 187 0 0.56500000 0.56500000 0.56500000
H 8.72649127 5.94722809 31.60742910 4324 187 0 1.00000000 1.00000000 1.00000000
H 9.73924762 6.01473220 30.17143658 4325 187 0 1.00000000 1.00000000 1.00000000
H 8.06797051 6.66610829 30.10515183 4326 187 0 1.00000000 1.00000000 1.00000000
H 8.67862056 8.35745343 31.90340146 4327 187 0 1.00000000 1.00000000 1.00000000
H 9.69652077 8.69095243 30.60665510 4328 187 0 1.00000000 1.00000000 1.00000000
H 10.46676380 6.83917355 32.94002048 4329 187 0 1.00000000 1.00000000 1.00000000
H 10.80933724 8.57695146 32.87924009 4330 187 0 1.00000000 1.00000000 1.00000000
H 12.72945514 8.13361575 31.43087664 4331 187 0 1.00000000 1.00000000 1.00000000
H 11.80778860 6.67354817 30.66172964 4332 187 0 1.00000000 1.00000000 1.00000000
H 12.26990662 5.86107596 33.21499184 4333 187 0 1.00000000 1.00000000 1.00000000
H 13.27356603 7.22899065 33.33237074 4334 187 0 1.00000000 1.00000000 1.00000000
H 13.63890558 4.77210520 31.48613653 4335 187 0 1.00000000 1.00000000 1.00000000
H 14.44712628 5.20414866 33.00789991 4336 187 0 1.00000000 1.00000000 1.00000000
H 15.28472716 7.27838837 31.46212054 4337 187 0 1.00000000 1.00000000 1.00000000
H 14.41396725 6.49500877 30.22943149 4338 187 0 1.00000000 1.00000000 1.00000000
H 15.87345241 5.77695889 30.76758074 4339 187 0 1.00000000 1.00000000 1.00000000
C 26.11924777 11.23383745 38.25699360 4340 188 0 0.56500000 0.56500000 0.56500000
C 24.70415892 11.53161906 37.81437327 4341 188 0 0.56500000 0.56500000 0.56500000
C 23.82358144 10.40270556 37.22766734 4342 188 0 0.56500000 0.56500000 0.56500000
C 22.63909221 10.88206128 36.32454398 4343 188 0 0.56500000 0.56500000 0.56500000
C 21.66157745 9.69437499 36.06289199 4344 188 0 0.56500000 0.56500000 0.56500000
C 20.36982493 10.12509924 35.36602046 4345 188 0 0.56500000 0.56500000 0.56500000
C 19.27669042 9.07395063 35.51339388 4346 188 0 0.56500000 0.56500000 0.56500000
H 26.58011119 12.07907081 38.79949995 4347 188 0 1.00000000 1.00000000 1.00000000
H 26.66774170 11.11005686 37.31002299 4348 188 0 1.00000000 1.00000000 1.00000000
H 26.10381062 10.34389204 38.88571159 4349 188 0 1.00000000 1.00000000 1.00000000
H 24.72828119 12.39663005 37.10910364 4350 188 0 1.00000000 1.00000000 1.00000000
H 24.15282376 11.74250208 38.75393254 4351 188 0 1.00000000 1.00000000 1.00000000
H 23.39835667 9.78530903 38.04670950 4352 188 0 1.00000000 1.00000000 1.00000000
H 24.32220198 9.56766556 36.67840009 4353 188 0 1.00000000 1.00000000 1.00000000
H 22.94435948 11.40021799 35.45763987 4354 188 0 1.00000000 1.00000000 1.00000000
H 22.06146927 11.67355963 36.85839687 4355 188 0 1.00000000 1.00000000 1.00000000
H 21.42595517 9.44538224 37.05126401 4356 188 0 1.00000000 1.00000000 1.00000000
H 22.12126415 8.92951702 35.47508381 4357 188 0 1.00000000 1.00000000 1.00000000
H 20.59200214 10.16547354 34.34130720 4358 188 0 1.00000000 1.00000000 1.00000000
H 19.97594296 11.08067415 35.59428743 4359 188 0 1.00000000 1.00000000 1.00000000
H 19.66959677 8.01077033 35.43218141 4360 188 0 1.00000000 1.00000000 1.00000000
H 18.59148139 9.24301501 34.69205675 4361 188 0 1.00000000 1.00000000 1.00000000
H 18.80073901 9.06591935 36.50935252 4362 188 0 1.00000000 1.00000000 1.00000000
C 41.58951275 33.68894461 23.58736353 4363 189 0 0.56500000 0.56500000 0.56500000
C 41.16168701 32.21571027 23.82545598 4364 189 0 0.56500000 0.56500000 0.56500000
C 42.23676987 31.29470238 24.24243624 4365 189 0 0.56500000 0.56500000 0.56500000
C 41.75005377 29.86324907 24.32907989 4366 189 0 0.56500000 0.56500000 0.56500000
C 42.80889451 28.78674273 24.75502185 4367 189 0 0.56500000 0.56500000 0.56500000
C 42.17438571 27.40540752 25.03286798 4368 189 0 0.56500000 0.56500000 0.56500000
C 43.03565373 26.19911096 24.77698174 4369 189 0 0.56500000 0.56500000 0.56500000
H 40.71274382 34.35743896 23.52872833 4370 189 0 1.00000000 1.00000000 1.00000000
H 42.19421836 33.78359584 22.67314215 4371 189 0 1.00000000 1.00000000 1.00000000
H 42.21040758 33.98243518 24.37993359 4372 189 0 1.00000000 1.00000000 1.00000000
H 40.59742649 31.79322194 22.97345056 4373 189 0 1.00000000 1.00000000 1.00000000
H 40.38756812 32.18909900 24.63818173 4374 189 0 1.00000000 1.00000000 1.00000000
H 42.56274911 31.75940581 25.20478938 4375 189 0 1.00000000 1.00000000 1.00000000
H 43.04796879 31.46698448 23.59579048 4376 189 0 1.00000000 1.00000000 1.00000000
H 41.17011958 29.51723521 23.45159248 4377 189 0 1.00000000 1.00000000 1.00000000
H 41.04241824 29.93725407 25.20114472 4378 189 0 1.00000000 1.00000000 1.00000000
H 43.37975935 29.18190016 25.73097349 4379 189 0 1.00000000 1.00000000 1.00000000
H 43.58144791 28.70975320 23.97381843 4380 189 0 1.00000000 1.00000000 1.00000000
H 41.32818839 27.25643891 24.35182046 4381 189 0 1.00000000 1.00000000 1.00000000
H 41.81358606 27.45747053 25.99920128 4382 189 0 1.00000000 1.00000000 1.00000000
H 42.55294030 25.28378287 24.97806056 4383 189 0 1.00000000 1.00000000 1.00000000
H 43.85696333 26.29958340 25.50975181 4384 189 0 1.00000000 1.00000000 1.00000000
H 43.50753145 26.28685651 23.72865860 4385 189 0 1.00000000 1.00000000 1.00000000
C 5.64214697 21.98991693 7.25458115 4386 190 0 0.56500000 0.56500000 0.56500000
C 4.71486984 20.76429374 7.13179129 4387 190 0 0.56500000 0.56500000 0.56500000
C 5.47961844 19.48135033 7.58070929 4388 190 0 0.56500000 0.56500000 0.56500000
C 6.60600613 19.14720366 6.67010664 4389 190 0 0.56500000 0.56500000 0.56500000
C 6.12171095 18.69150756 5.26798575 4390 190 0 0.56500000 0.56500000 0.56500000
C 7.16491521 18.10257787 4.36262961 4391 190 0 0.56500000 0.56500000 0.56500000
C 6.56012688 17.60105171 3.08823934 4392 190 0 0.56500000 0.56500000 0.56500000
H 6.14780744 21.78554103 8.24238515 4393 190 0 1.00000000 1.00000000 1.00000000
H 5.02518457 22.87679254 7.35670158 4394 190 0 1.00000000 1.00000000 1.00000000
H 6.47741752 22.01510465 6.56018471 4395 190 0 1.00000000 1.00000000 1.00000000
H 4.40005321 20.68004633 6.08859882 4396 190 0 1.00000000 1.00000000 1.00000000
H 3.89352385 20.87308837 7.83236094 4397 190 0 1.00000000 1.00000000 1.00000000
H 4.82178884 18.60386709 7.61001875 4398 190 0 1.00000000 1.00000000 1.00000000
H 5.80380935 19.69787984 8.66222560 4399 190 0 1.00000000 1.00000000 1.00000000
H 7.12679347 18.39319378 7.23236407 4400 190 0 1.00000000 1.00000000 1.00000000
H 7.24013679 20.02818071 6.60602539 4401 190 0 1.00000000 1.00000000 1.00000000
H 5.58350577 19.48888029 4.73880324 4402 190 0 1.00000000 1.00000000 1.00000000
H 5.30481594 17.89610358 5.42280007 4403 190 0 1.00000000 1.00000000 1.00000000
H 7.68733783 17.33061185 4.91848692 4404 190 0 1.00000000 1.00000000 1.00000000
H 7.93813688 18.84182004 4.10429476 4405 190 0 1.00000000 1.00000000 1.00000000
H 7.27375373 17.14687867 2.39700013 4406 190 0 1.00000000 1.00000000 1.00000000
H 5.96873603 18.43113015 2.69251931 4407 190 0 1.00000000 1.00000000 1.00000000
H 5.85365478 16.76437080 3.35757589 4408 190 0 1.00000000 1.00000000 1.00000000
C 20.62293799 5.99774797 -1.50350798 4409 191 0 0.56500000 0.56500000 0.56500000
C 19.84098578 4.97774780 -0.83160748 4410 191 0 0.56500000 0.56500000 0.56500000
C 19.69412323 5.05204495 0.73253424 4411 191 0 0.56500000 0.56500000 0.56500000
C 20.84402101 4.67035256 1.57570070 4412 191 0 0.56500000 0.56500000 0.56500000
C 21.21159271 3.13569994 1.40232443 4413 191 0 0.56500000 0.56500000 0.56500000
C 22.34087244 2.61622441 2.28944837 4414 191 0 0.56500000 0.56500000 0.56500000
C 22.07280107 2.46203941 3.74736808 4415 191 0 0.56500000 0.56500000 0.56500000
H 20.36734225 7.05454245 -1.26043448 4416 191 0 1.00000000 1.00000000 1.00000000
H 20.48642574 5.99153210 -2.58320587 4417 191 0 1.00000000 1.00000000 1.00000000
H 21.73022702 6.03715417 -1.29669231 4418 191 0 1.00000000 1.00000000 1.00000000
H 20.17825217 3.92702535 -1.16914940 4419 191 0 1.00000000 1.00000000 1.00000000
H 18.80005106 5.04540764 -1.15939388 4420 191 0 1.00000000 1.00000000 1.00000000
H 18.73272608 4.65884229 1.20259826 4421 191 0 1.00000000 1.00000000 1.00000000
H 19.52767144 6.19732227 0.84447103 4422 191 0 1.00000000 1.00000000 1.00000000
H 20.67685835 4.82675824 2.65791839 4423 191 0 1.00000000 1.00000000 1.00000000
H 21.71208875 5.30723170 1.33812313 4424 191 0 1.00000000 1.00000000 1.00000000
H 21.45449359 2.91740910 0.38689390 4425 191 0 1.00000000 1.00000000 1.00000000
H 20.30505068 2.57107694 1.62090323 4426 191 0 1.00000000 1.00000000 1.00000000
H 23.26386197 3.16488612 2.09900926 4427 191 0 1.00000000 1.00000000 1.00000000
H 22.63869327 1.56561443 2.00015127 4428 191 0 1.00000000 1.00000000 1.00000000
H 21.15738835 1.94129939 3.97169043 4429 191 0 1.00000000 1.00000000 1.00000000
H 21.89936201 3.39823913 4.32770190 4430 191 0 1.00000000 1.00000000 1.00000000
H 22.89096465 1.93904222 4.31276391 4431 191 0 1.00000000 1.00000000 1.00000000
C 17.39480280 19.73469631 18.73212939 4432 192 0 0.56500000 0.56500000 0.56500000
C 17.08458723 21.08653702 18.18974893 4433 192 0 0.56500000 0.56500000 0.56500000
C 16.16213171 20.96634820 16.90129527 4434 192 0 0.56500000 0.56500000 0.56500000
C 15.78229044 22.39252114 16.42696894 4435 192 0 0.56500000 0.56500000 0.56500000
C 16.87524191 23.32646938 15.95231397 4436 192 0 0.56500000 0.56500000 0.56500000
C 16.28807041 24.72705494 15.63214711 4437 192 0 0.56500000 0.56500000 0.56500000
C 15.25804144 24.79999754 14.50349870 4438 192 0 0.56500000 0.56500000 0.56500000
H 17.95564434 19.75080883 19.68699643 4439 192 0 1.00000000 1.00000000 1.00000000
H 18.05903850 19.19848607 18.05798193 4440 192 0 1.00000000 1.00000000 1.00000000
H 16.45556350 19.16249515 18.88613823 4441 192 0 1.00000000 1.00000000 1.00000000
H 17.99508144 21.64647925 17.93427924 4442 192 0 1.00000000 1.00000000 1.00000000
H 16.63038792 21.77783352 18.93347189 4443 192 0 1.00000000 1.00000000 1.00000000
H 15.31292837 20.34844613 17.12045584 4444 192 0 1.00000000 1.00000000 1.00000000
H 16.68711833 20.34931767 16.12259125 4445 192 0 1.00000000 1.00000000 1.00000000
H 15.23169341 22.81747056 17.22413248 4446 192 0 1.00000000 1.00000000 1.00000000
H 15.13611261 22.34202113 15.57310917 4447 192 0 1.00000000 1.00000000 1.00000000
H 17.23902640 23.04470832 14.95674681 4448 192 0 1.00000000 1.00000000 1.00000000
H 17.76199459 23.52978782 16.66120924 4449 192 0 1.00000000 1.00000000 1.00000000
H 17.13267742 25.33206067 15.56158704 4450 192 0 1.00000000 1.00000000 1.00000000
H 15.83803850 25.07570227 16.56006845 4451 192 0 1.00000000 1.00000000 1.00000000
H 14.21329227 24.58379020 14.80723024 4452 192 0 1.00000000 1.00000000 1.00000000
H 15.36466215 24.07647671 13.66847282 4453 192 0 1.00000000 1.00000000 1.00000000
H 15.14481828 25.79810257 13.99920096 4454 192 0 1.00000000 1.00000000 1.00000000
C 40.96676278 16.95356631 20.79359376 4455 193 0 0.56500000 0.56500000 0.56500000
C 42.23734395 17.83753951 20.69562910 4456 193 0 0.56500000 0.56500000 0.56500000
C 42.03078949 19.36993466 21.02985497 4457 193 0 0.56500000 0.56500000 0.56500000
C 43.26832195 20.21347865 20.65158218 4458 193 0 0.56500000 0.56500000 0.56500000
C 43.26798269 21.68628968 21.04669461 4459 193 0 0.56500000 0.56500000 0.56500000
C 44.36653142 22.53383229 20.54123658 4460 193 0 0.56500000 0.56500000 0.56500000
C 44.31124720 22.82284581 19.02343014 4461 193 0 0.56500000 0.56500000 0.56500000
H 41.13404609 15.96498762 20.31996520 4462 193 0 1.00000000 1.00000000 1.00000000
H 40.20787020 17.39547302 20.13415011 4463 193 0 1.00000000 1.00000000 1.00000000
H 40.58516464 16.83477821 21.88678747 4464 193 0 1.00000000 1.00000000 1.00000000
H 42.73760462 17.68081658 19.75374413 4465 193 0 1.00000000 1.00000000 1.00000000
H 42.95793147 17.54603029 21.42341881 4466 193 0 1.00000000 1.00000000 1.00000000
H 41.87636782 19.49372606 22.08880460 4467 193 0 1.00000000 1.00000000 1.00000000
H 41.10962841 19.79266773 20.61641555 4468 193 0 1.00000000 1.00000000 1.00000000
H 43.47142857 20.10813011 19.56214620 4469 193 0 1.00000000 1.00000000 1.00000000
H 44.17435331 19.68861570 21.07795305 4470 193 0 1.00000000 1.00000000 1.00000000
H 43.16560955 21.70228684 22.14047739 4471 193 0 1.00000000 1.00000000 1.00000000
H 42.24948737 21.98122505 20.80291141 4472 193 0 1.00000000 1.00000000 1.00000000
H 45.32194121 21.95953225 20.60760863 4473 193 0 1.00000000 1.00000000 1.00000000
H 44.61046867 23.38054630 21.14749891 4474 193 0 1.00000000 1.00000000 1.00000000
H 44.40633740 21.90251390 18.45766367 4475 193 0 1.00000000 1.00000000 1.00000000
H 45.16654111 23.46674522 18.73953525 4476 193 0 1.00000000 1.00000000 1.00000000
H 43.42256316 23.43464402 18.72129906 4477 193 0 1.00000000 1.00000000 1.00000000
C 4.99079837 47.40598710 33.66492450 4478 194 0 0.56500000 0.56500000 0.56500000
C 5.48467788 45.95094938 33.60142674 4479 194 0 0.56500000 0.56500000 0.56500000
C 7.04566299 45.90049756 33.63775105 4480 194 0 0.56500000 0.56500000 0.56500000
C 7.57856981 44.45681179 33.68263241 4481 194 0 0.56500000 0.56500000 0.56500000
C 9.06148060 44.34862501 33.59321699 4482 194 0 0.56500000 0.56500000 0.56500000
C 9.75687380 42.97124300 33.64315053 4483 194 0 0.56500000 0.56500000 0.56500000
C 11.24202768 43.00495419 33.42390827 4484 194 0 0.56500000 0.56500000 0.56500000
H 5.51525744 48.05339786 32.92693510 4485 194 0 1.00000000 1.00000000 1.00000000
H 5.02685552 47.77717753 34.70728923 4486 194 0 1.00000000 1.00000000 1.00000000
H 3.92669258 47.46577091 33.26350942 4487 194 0 1.00000000 1.00000000 1.00000000
H 5.05781850 45.37441382 32.75107538 4488 194 0 1.00000000 1.00000000 1.00000000
H 5.17478869 45.40888743 34.50195418 4489 194 0 1.00000000 1.00000000 1.00000000
H 7.45436635 46.34924401 34.57484474 4490 194 0 1.00000000 1.00000000 1.00000000
H 7.52836634 46.42732167 32.82766712 4491 194 0 1.00000000 1.00000000 1.00000000
H 7.03944775 43.73187278 33.10572751 4492 194 0 1.00000000 1.00000000 1.00000000
H 7.36079748 44.14378551 34.69449937 4493 194 0 1.00000000 1.00000000 1.00000000
H 9.50976523 44.91945694 34.34391411 4494 194 0 1.00000000 1.00000000 1.00000000
H 9.34343617 44.96172725 32.76145253 4495 194 0 1.00000000 1.00000000 1.00000000
H 9.30786428 42.24635552 32.93161034 4496 194 0 1.00000000 1.00000000 1.00000000
H 9.57038757 42.36232236 34.68734221 4497 194 0 1.00000000 1.00000000 1.00000000
H 11.55195469 43.10880098 32.36195684 4498 194 0 1.00000000 1.00000000 1.00000000
H 11.71933958 42.11110667 33.82600797 4499 194 0 1.00000000 1.00000000 1.00000000
H 11.79369843 43.88760244 33.90896092 4500 194 0 1.00000000 1.00000000 1.00000000
C 6.19986720 29.52361176 0.44359185 4501 195 0 0.56500000 0.56500000 0.56500000
C 6.77691934 28.15381970 0.11707222 4502 195 0 0.56500000 0.56500000 0.56500000
C 8.33361016 28.10584548 -0.24908949 4503 195 0 0.56500000 0.56500000 0.56500000
C 8.65290776 26.70279619 -0.70444430 4504 195 0 0.56500000 0.56500000 0.56500000
C 10.15066947 26.26107417 -0.66658740 4505 195 0 0.56500000 0.56500000 0.56500000
C 10.40414739 24.83160286 -1.09396023 4506 195 0 0.56500000 0.56500000 0.56500000
C 9.95149310 23.74946954 -0.04551002 4507 195 0 0.56500000 0.56500000 0.56500000
H 5.12467237 29.54610939 0.56181319 4508 195 0 1.00000000 1.00000000 1.00000000
H 6.40057815 30.32421273 -0.28066579 4509 195 0 1.00000000 1.00000000 1.00000000
H 6.70352143 29.85659077 1.37966062 4510 195 0 1.00000000 1.00000000 1.00000000
H 6.33915885 27.72158096 -0.73756171 4511 195 0 1.00000000 1.00000000 1.00000000
H 6.63048383 27.44911334 0.94807580 4512 195 0 1.00000000 1.00000000 1.00000000
H 8.89839258 28.24360376 0.71513582 4513 195 0 1.00000000 1.00000000 1.00000000
H 8.59750864 28.87428378 -0.91475990 4514 195 0 1.00000000 1.00000000 1.00000000
H 8.17333101 26.45619842 -1.68174275 4515 195 0 1.00000000 1.00000000 1.00000000
H 8.30934034 25.94066748 0.01315967 4516 195 0 1.00000000 1.00000000 1.00000000
H 10.55925783 26.41565223 0.35048684 4517 195 0 1.00000000 1.00000000 1.00000000
H 10.74479465 26.99196516 -1.29328875 4518 195 0 1.00000000 1.00000000 1.00000000
H 11.47665335 24.70205685 -1.26580928 4519 195 0 1.00000000 1.00000000 1.00000000
H 9.87000845 24.64097195 -2.03574646 4520 195 0 1.00000000 1.00000000 1.00000000
H 10.15562038 22.74936078 -0.32473609 4521 195 0 1.00000000 1.00000000 1.00000000
H 8.85585679 23.76447182 0.20760622 4522 195 0 1.00000000 1.00000000 1.00000000
H 10.59557488 23.90072063 0.82107878 4523 195 0 1.00000000 1.00000000 1.00000000
C 30.72883102 27.03780243 38.40219104 4524 196 0 0.56500000 0.56500000 0.56500000
C 30.27372252 27.13176067 36.88575903 4525 196 0 0.56500000 0.56500000 0.56500000
C 28.89983340 27.82912883 36.59272964 4526 196 0 0.56500000 0.56500000 0.56500000
C 28.99071233 29.34954643 36.83675490 4527 196 0 0.56500000 0.56500000 0.56500000
C 27.98704273 30.21597320 36.07271908 4528 196 0 0.56500000 0.56500000 0.56500000
C 27.84291708 31.64525700 36.60626912 4529 196 0 0.56500000 0.56500000 0.56500000
C 27.36048278 32.61311573 35.52133335 4530 196 0 0.56500000 0.56500000 0.56500000
H 30.96438021 27.96741054 38.82634326 4531 196 0 1.00000000 1.00000000 1.00000000
H 31.72524072 26.43641330 38.44081423 4532 196 0 1.00000000 1.00000000 1.00000000
H 29.93155042 26.52203405 38.96293580 4533 196 0 1.00000000 1.00000000 1.00000000
H 30.26943158 26.16500650 36.44062907 4534 196 0 1.00000000 1.00000000 1.00000000
H 31.13453976 27.57982302 36.40784760 4535 196 0 1.00000000 1.00000000 1.00000000
H 28.12207522 27.35736853 37.19312167 4536 196 0 1.00000000 1.00000000 1.00000000
H 28.54180028 27.70241629 35.53384763 4537 196 0 1.00000000 1.00000000 1.00000000
H 29.98415791 29.74181892 36.61101872 4538 196 0 1.00000000 1.00000000 1.00000000
H 28.88463812 29.55018617 37.84156507 4539 196 0 1.00000000 1.00000000 1.00000000
H 26.96050009 29.81148550 36.11013558 4540 196 0 1.00000000 1.00000000 1.00000000
H 28.26602256 30.16529070 34.99760149 4541 196 0 1.00000000 1.00000000 1.00000000
H 28.84575850 31.99321031 36.86679175 4542 196 0 1.00000000 1.00000000 1.00000000
H 27.34955105 31.63140852 37.56280273 4543 196 0 1.00000000 1.00000000 1.00000000
H 26.44349403 32.19285797 35.18860281 4544 196 0 1.00000000 1.00000000 1.00000000
H 27.94528630 32.64087509 34.67254302 4545 196 0 1.00000000 1.00000000 1.00000000
H 27.10327243 33.57579215 35.94046581 4546 196 0 1.00000000 1.00000000 1.00000000
C 38.66751830 36.11191311 -7.24207960 4547 197 0 0.56500000 0.56500000 0.56500000
C 37.37658221 36.85805193 -7.43827945 4548 197 0 0.56500000 0.56500000 0.56500000
C 37.17707172 38.25509374 -6.90056759 4549 197 0 0.56500000 0.56500000 0.56500000
C 36.09773026 39.11635593 -7.52293933 4550 197 0 0.56500000 0.56500000 0.56500000
C 36.21528143 40.48679520 -6.93141823 4551 197 0 0.56500000 0.56500000 0.56500000
C 35.37853192 41.53188367 -7.63039816 4552 197 0 0.56500000 0.56500000 0.56500000
C 35.46118418 42.91793238 -6.95902032 4553 197 0 0.56500000 0.56500000 0.56500000
H 38.95532978 36.05915718 -6.24575668 4554 197 0 1.00000000 1.00000000 1.00000000
H 39.54943940 36.50866992 -7.83475124 4555 197 0 1.00000000 1.00000000 1.00000000
H 38.54833236 35.08806879 -7.65071443 4556 197 0 1.00000000 1.00000000 1.00000000
H 36.64022347 36.19538488 -7.08168119 4557 197 0 1.00000000 1.00000000 1.00000000
H 37.34223125 36.99567486 -8.49773582 4558 197 0 1.00000000 1.00000000 1.00000000
H 38.11492624 38.82144410 -6.99625235 4559 197 0 1.00000000 1.00000000 1.00000000
H 36.97012312 38.28641567 -5.79167827 4560 197 0 1.00000000 1.00000000 1.00000000
H 35.09971708 38.70782350 -7.40732778 4561 197 0 1.00000000 1.00000000 1.00000000
H 36.31365898 39.15928074 -8.62145313 4562 197 0 1.00000000 1.00000000 1.00000000
H 37.22110534 40.86578117 -6.97434474 4563 197 0 1.00000000 1.00000000 1.00000000
H 36.11134526 40.56946541 -5.83641974 4564 197 0 1.00000000 1.00000000 1.00000000
H 34.27917729 41.25587407 -7.51616160 4565 197 0 1.00000000 1.00000000 1.00000000
H 35.73849927 41.50761403 -8.66547074 4566 197 0 1.00000000 1.00000000 1.00000000
H 36.53306375 43.08156178 -6.64962360 4567 197 0 1.00000000 1.00000000 1.00000000
H 34.84590160 42.95456914 -6.10186075 4568 197 0 1.00000000 1.00000000 1.00000000
H 35.14089565 43.73111882 -7.63739102 4569 197 0 1.00000000 1.00000000 1.00000000
C 19.59589856 14.68168397 2.19249389 4570 198 0 0.56500000 0.56500000 0.56500000
C 18.75355309 15.50253387 3.10218630 4571 198 0 0.56500000 0.56500000 0.56500000
C 18.95509412 15.08202746 4.50458398 4572 198 0 0.56500000 0.56500000 0.56500000
C 17.99954694 15.78294484 5.50289803 4573 198 0 0.56500000 0.56500000 0.56500000
C 18.02476601 17.31990283 5.53162171 4574 198 0 0.56500000 0.56500000 0.56500000
C 19.05748386 17.84192661 6.50642296 4575 198 0 0.56500000 0.56500000 0.56500000
C 18.65379096 17.87679509 7.97603985 4576 198 0 0.56500000 0.56500000 0.56500000
H 19.33249570 13.59895046 2.31240529 4577 198 0 1.00000000 1.00000000 1.00000000
H 20.66767565 14.74024867 2.42364261 4578 198 0 1.00000000 1.00000000 1.00000000
H 19.40501498 14.91253962 1.17900318 4579 198 0 1.00000000 1.00000000 1.00000000
H 17.70161568 15.34701784 2.86758540 4580 198 0 1.00000000 1.00000000 1.00000000
H 19.03934429 16.58280235 2.98380060 4581 198 0 1.00000000 1.00000000 1.00000000
H 20.03188090 15.26598352 4.70187586 4582 198 0 1.00000000 1.00000000 1.00000000
H 18.76177822 13.95718542 4.55590385 4583 198 0 1.00000000 1.00000000 1.00000000
H 17.99835790 15.26514525 6.43086061 4584 198 0 1.00000000 1.00000000 1.00000000
H 17.05223128 15.48280626 5.15508331 4585 198 0 1.00000000 1.00000000 1.00000000
H 17.00060295 17.60626668 5.76046692 4586 198 0 1.00000000 1.00000000 1.00000000
H 18.18084093 17.71151735 4.52504301 4587 198 0 1.00000000 1.00000000 1.00000000
H 19.52964024 18.85315544 6.17387978 4588 198 0 1.00000000 1.00000000 1.00000000
H 20.03160377 17.26500643 6.41800424 4589 198 0 1.00000000 1.00000000 1.00000000
H 17.58119949 17.84569951 8.19202839 4590 198 0 1.00000000 1.00000000 1.00000000
H 19.05920161 18.77216444 8.48479306 4591 198 0 1.00000000 1.00000000 1.00000000
H 19.10737405 16.99391067 8.49742629 4592 198 0 1.00000000 1.00000000 1.00000000
C 44.48729246 43.99863620 25.86875370 4593 199 0 0.56500000 0.56500000 0.56500000
C 45.91616165 43.63222909 26.29836240 4594 199 0 0.56500000 0.56500000 0.56500000
C 46.02599713 42.80924097 27.55787489 4595 199 0 0.56500000 0.56500000 0.56500000
C 45.30934837 41.51008427 27.43526322 4596 199 0 0.56500000 0.56500000 0.56500000
C 45.79986983 40.34639265 26.47859701 4597 199 0 0.56500000 0.56500000 0.56500000
C 44.92806697 39.16595376 26.26201626 4598 199 0 0.56500000 0.56500000 0.56500000
C 44.32503921 38.51739224 27.50236607 4599 199 0 0.56500000 0.56500000 0.56500000
H 44.01024098 44.30423069 26.78511905 4600 199 0 1.00000000 1.00000000 1.00000000
H 43.86733323 43.19741372 25.52223031 4601 199 0 1.00000000 1.00000000 1.00000000
H 44.43693837 44.77376064 25.10030361 4602 199 0 1.00000000 1.00000000 1.00000000
H 46.44532136 44.64123186 26.43625510 4603 199 0 1.00000000 1.00000000 1.00000000
H 46.42789426 43.20944676 25.39552077 4604 199 0 1.00000000 1.00000000 1.00000000
H 45.57246510 43.37066298 28.43432334 4605 199 0 1.00000000 1.00000000 1.00000000
H 47.11599822 42.60057509 27.76831835 4606 199 0 1.00000000 1.00000000 1.00000000
H 44.26192462 41.60199426 27.17545925 4607 199 0 1.00000000 1.00000000 1.00000000
H 45.36426282 41.05530984 28.41309238 4608 199 0 1.00000000 1.00000000 1.00000000
H 46.79700003 40.16280585 26.83050234 4609 199 0 1.00000000 1.00000000 1.00000000
H 45.86952463 40.81364761 25.50671212 4610 199 0 1.00000000 1.00000000 1.00000000
H 45.50661774 38.42606922 25.71101770 4611 199 0 1.00000000 1.00000000 1.00000000
H 44.11193965 39.55021973 25.68787773 4612 199 0 1.00000000 1.00000000 1.00000000
H 45.07772874 38.00447708 28.09180981 4613 199 0 1.00000000 1.00000000 1.00000000
H 43.54851180 37.74895762 27.19743133 4614 199 0 1.00000000 1.00000000 1.00000000
H 43.80647109 39.18472557 28.14573562 4615 199 0 1.00000000 1.00000000 1.00000000
C 12.38891138 38.85418160 1.20108969 4616 200 0 0.56500000 0.56500000 0.56500000
C 12.45023628 37.34541995 1.01432662 4617 200 0 0.56500000 0.56500000 0.56500000
C 12.37250974 36.46846311 2.25287433 4618 200 0 0.56500000 0.56500000 0.56500000
C 13.72233405 36.46088237 2.99685114 4619 200 0 0.56500000 0.56500000 0.56500000
C 13.64288023 35.65106645 4.23862836 4620 200 0 0.56500000 0.56500000 0.56500000
C 13.10491153 36.49359414 5.47249980 4621 200 0 0.56500000 0.56500000 0.56500000
C 13.41371806 35.78677741 6.77859234 4622 200 0 0.56500000 0.56500000 0.56500000
H 12.67014642 39.41408589 0.32341709 4623 200 0 1.00000000 1.00000000 1.00000000
H 13.05036888 39.21713138 1.99781903 4624 200 0 1.00000000 1.00000000 1.00000000
H 11.41603454 39.16928247 1.55810910 4625 200 0 1.00000000 1.00000000 1.00000000
H 13.32070689 36.93282142 0.47532599 4626 200 0 1.00000000 1.00000000 1.00000000
H 11.51595466 37.15565004 0.54793887 4627 200 0 1.00000000 1.00000000 1.00000000
H 12.13626715 35.49233351 1.91091233 4628 200 0 1.00000000 1.00000000 1.00000000
H 11.55557973 36.73209742 2.90219770 4629 200 0 1.00000000 1.00000000 1.00000000
H 14.13098108 37.50356034 3.15605676 4630 200 0 1.00000000 1.00000000 1.00000000
H 14.39428230 35.95104385 2.30897778 4631 200 0 1.00000000 1.00000000 1.00000000
H 14.61571808 35.23031618 4.54237833 4632 200 0 1.00000000 1.00000000 1.00000000
H 12.95947473 34.80355055 4.18532855 4633 200 0 1.00000000 1.00000000 1.00000000
H 12.07502582 36.63615510 5.28820823 4634 200 0 1.00000000 1.00000000 1.00000000
H 13.60268581 37.47276908 5.41863541 4635 200 0 1.00000000 1.00000000 1.00000000
H 12.97272006 36.32530474 7.65191711 4636 200 0 1.00000000 1.00000000 1.00000000
H 14.51370743 35.64388891 6.86411577 4637 200 0 1.00000000 1.00000000 1.00000000
H 12.99815028 34.79985703 6.85216530 4638 200 0 1.00000000 1.00000000 1.00000000
C 30.10934382 7.35277559 32.01701963 4639 201 0 0.56500000 0.56500000 0.56500000
C 30.26516433 5.83242696 31.78860926 4640 201 0 0.56500000 0.56500000 0.56500000
C 30.16060342 5.55214301 30.28558842 4641 201 0 0.56500000 0.56500000 0.56500000
C 29.65180854 4.16757439 30.03132218 4642 201 0 0.56500000 0.56500000 0.56500000
C 28.98315887 3.95230057 28.67762242 4643 201 0 0.56500000 0.56500000 0.56500000
C 30.00846830 4.09146583 27.50603862 4644 201 0 0.56500000 0.56500000 0.56500000
C 29.43429611 3.61944343 26.20146816 4645 201 0 0.56500000 0.56500000 0.56500000
H 30.96950357 7.94086702 31.66707302 4646 201 0 1.00000000 1.00000000 1.00000000
H 29.97172808 7.75027437 33.02284857 4647 201 0 1.00000000 1.00000000 1.00000000
H 29.15111336 7.71230066 31.60318384 4648 201 0 1.00000000 1.00000000 1.00000000
H 29.39542832 5.34686712 32.30494916 4649 201 0 1.00000000 1.00000000 1.00000000
H 31.19143950 5.37812373 32.18602717 4650 201 0 1.00000000 1.00000000 1.00000000
H 31.09667083 5.86315224 29.71620428 4651 201 0 1.00000000 1.00000000 1.00000000
H 29.37474699 6.19809589 29.91654570 4652 201 0 1.00000000 1.00000000 1.00000000
H 28.85577788 3.88155847 30.79959332 4653 201 0 1.00000000 1.00000000 1.00000000
H 30.49564239 3.44287533 30.12327984 4654 201 0 1.00000000 1.00000000 1.00000000
H 28.24669384 4.69735803 28.55818331 4655 201 0 1.00000000 1.00000000 1.00000000
H 28.50979444 2.97471074 28.58973843 4656 201 0 1.00000000 1.00000000 1.00000000
H 30.90819722 3.43276083 27.64737513 4657 201 0 1.00000000 1.00000000 1.00000000
H 30.42574489 5.14494339 27.43220610 4658 201 0 1.00000000 1.00000000 1.00000000
H 30.18731433 3.27520916 25.49063543 4659 201 0 1.00000000 1.00000000 1.00000000
H 28.85595383 4.31346959 25.62938523 4660 201 0 1.00000000 1.00000000 1.00000000
H 28.76937397 2.76331076 26.38991699 4661 201 0 1.00000000 1.00000000 1.00000000
C 42.17096222 29.15667674 3.42281820 4662 202 0 0.56500000 0.56500000 0.56500000
C 41.83420791 29.40582686 1.94146115 4663 202 0 0.56500000 0.56500000 0.56500000
C 40.41022268 29.81062835 1.61364447 4664 202 0 0.56500000 0.56500000 0.56500000
C 40.10590520 31.27352194 1.77428705 4665 202 0 0.56500000 0.56500000 0.56500000
C 39.70219386 31.76834603 3.17190569 4666 202 0 0.56500000 0.56500000 0.56500000
C 40.22450018 33.06613001 3.63889899 4667 202 0 0.56500000 0.56500000 0.56500000
C 39.72319980 33.31031631 5.09896426 4668 202 0 0.56500000 0.56500000 0.56500000
H 43.29270516 29.11113431 3.55682540 4669 202 0 1.00000000 1.00000000 1.00000000
H 41.71221442 28.31947638 3.87358783 4670 202 0 1.00000000 1.00000000 1.00000000
H 41.91496444 30.04805451 3.98747171 4671 202 0 1.00000000 1.00000000 1.00000000
H 42.12390535 28.55458663 1.31434003 4672 202 0 1.00000000 1.00000000 1.00000000
H 42.52929354 30.17230901 1.51974680 4673 202 0 1.00000000 1.00000000 1.00000000
H 39.70181143 29.13553323 2.01397559 4674 202 0 1.00000000 1.00000000 1.00000000
H 40.35398290 29.55359725 0.51917093 4675 202 0 1.00000000 1.00000000 1.00000000
H 39.26235536 31.37770880 1.10700491 4676 202 0 1.00000000 1.00000000 1.00000000
H 40.92735716 31.69038777 1.29463291 4677 202 0 1.00000000 1.00000000 1.00000000
H 40.11436989 31.02727994 3.91061532 4678 202 0 1.00000000 1.00000000 1.00000000
H 38.64881995 31.64289957 3.27276091 4679 202 0 1.00000000 1.00000000 1.00000000
H 39.84702676 33.85667967 2.96572433 4680 202 0 1.00000000 1.00000000 1.00000000
H 41.32359238 33.05709721 3.41733553 4681 202 0 1.00000000 1.00000000 1.00000000
H 40.22641397 32.45268840 5.53499717 4682 202 0 1.00000000 1.00000000 1.00000000
H 38.64071712 33.16861545 5.02712417 4683 202 0 1.00000000 1.00000000 1.00000000
H 39.93492658 34.27194682 5.48835237 4684 202 0 1.00000000 1.00000000 1.00000000
C 11.31428967 2.39145708 28.59780165 4685 203 0 0.56500000 0.56500000 0.56500000
C 12.60256501 2.19237847 27.70950418 4686 203 0 0.56500000 0.56500000 0.56500000
C 13.11360227 3.31599698 26.81419432 4687 203 0 0.56500000 0.56500000 0.56500000
C 13.46430562 4.61230245 27.60279878 4688 203 0 0.56500000 0.56500000 0.56500000
C 13.89186525 5.67297659 26.59200852 4689 203 0 0.56500000 0.56500000 0.56500000
C 14.47833579 7.01103895 27.20589929 4690 203 0 0.56500000 0.56500000 0.56500000
C 14.82577068 8.02823934 26.15017469 4691 203 0 0.56500000 0.56500000 0.56500000
H 11.20161811 1.46698778 29.18369885 4692 203 0 1.00000000 1.00000000 1.00000000
H 10.33597437 2.43134209 28.03286672 4693 203 0 1.00000000 1.00000000 1.00000000
H 11.36430028 3.21111842 29.26042339 4694 203 0 1.00000000 1.00000000 1.00000000
H 12.32322039 1.31769319 27.02078330 4695 203 0 1.00000000 1.00000000 1.00000000
H 13.40941315 1.89695722 28.35118383 4696 203 0 1.00000000 1.00000000 1.00000000
H 12.37057370 3.54897348 26.05961721 4697 203 0 1.00000000 1.00000000 1.00000000
H 14.05204495 2.97544875 26.25588285 4698 203 0 1.00000000 1.00000000 1.00000000
H 14.21887620 4.39905220 28.34495140 4699 203 0 1.00000000 1.00000000 1.00000000
H 12.54313424 4.90516574 28.13706824 4700 203 0 1.00000000 1.00000000 1.00000000
H 12.88680145 5.92497074 26.12776015 4701 203 0 1.00000000 1.00000000 1.00000000
H 14.54740485 5.36285776 25.80880681 4702 203 0 1.00000000 1.00000000 1.00000000
H 15.36187242 6.91270224 27.85108937 4703 203 0 1.00000000 1.00000000 1.00000000
H 13.73432444 7.44953118 27.83346793 4704 203 0 1.00000000 1.00000000 1.00000000
H 15.03055415 8.99833452 26.65455286 4705 203 0 1.00000000 1.00000000 1.00000000
H 13.99769904 8.18342397 25.46274400 4706 203 0 1.00000000 1.00000000 1.00000000
H 15.72205276 7.82644052 25.57477212 4707 203 0 1.00000000 1.00000000 1.00000000
C 34.27063101 13.13336643 24.50596642 4708 204 0 0.56500000 0.56500000 0.56500000
C 33.30775324 14.28275280 24.88742054 4709 204 0 0.56500000 0.56500000 0.56500000
C 32.83526201 14.25594583 26.37077137 4710 204 0 0.56500000 0.56500000 0.56500000
C 31.75203788 15.27847285 26.75914185 4711 204 0 0.56500000 0.56500000 0.56500000
C 31.00124581 14.88463646 28.06146685 4712 204 0 0.56500000 0.56500000 0.56500000
C 31.68000115 15.10932814 29.32728234 4713 204 0 0.56500000 0.56500000 0.56500000
C 30.63885268 14.87291152 30.42139543 4714 204 0 0.56500000 0.56500000 0.56500000
H 35.36422359 13.20106058 24.86828273 4715 204 0 1.00000000 1.00000000 1.00000000
H 34.17797818 12.99897169 23.40131043 4716 204 0 1.00000000 1.00000000 1.00000000
H 33.81077490 12.20627565 24.95590969 4717 204 0 1.00000000 1.00000000 1.00000000
H 32.44257670 14.07322552 24.17299334 4718 204 0 1.00000000 1.00000000 1.00000000
H 33.67287804 15.27577602 24.64751355 4719 204 0 1.00000000 1.00000000 1.00000000
H 33.69536054 14.18243862 27.01655035 4720 204 0 1.00000000 1.00000000 1.00000000
H 32.37109534 13.23666485 26.46300671 4721 204 0 1.00000000 1.00000000 1.00000000
H 31.08509675 15.32052681 25.85354334 4722 204 0 1.00000000 1.00000000 1.00000000
H 32.25001140 16.20559437 26.90002154 4723 204 0 1.00000000 1.00000000 1.00000000
H 30.55423836 13.85973165 27.97960609 4724 204 0 1.00000000 1.00000000 1.00000000
H 30.10394380 15.54338039 28.02128258 4725 204 0 1.00000000 1.00000000 1.00000000
H 32.16743994 16.15335170 29.35050107 4726 204 0 1.00000000 1.00000000 1.00000000
H 32.40105956 14.31071801 29.42647446 4727 204 0 1.00000000 1.00000000 1.00000000
H 30.11531807 13.90932512 30.17024785 4728 204 0 1.00000000 1.00000000 1.00000000
H 29.80090415 15.61235675 30.45635280 4729 204 0 1.00000000 1.00000000 1.00000000
H 31.06833894 14.83791268 31.41674310 4730 204 0 1.00000000 1.00000000 1.00000000
C 30.65384667 11.32484429 39.19806386 4731 205 0 0.56500000 0.56500000 0.56500000
C 30.47210368 10.77966278 37.74059145 4732 205 0 0.56500000 0.56500000 0.56500000
C 29.81516587 9.42844186 37.74845158 4733 205 0 0.56500000 0.56500000 0.56500000
C 29.51183806 8.74385444 36.45033567 4734 205 0 0.56500000 0.56500000 0.56500000
C 29.10130487 7.29787524 36.54006219 4735 205 0 0.56500000 0.56500000 0.56500000
C 28.95256037 6.56177314 35.12361572 4736 205 0 0.56500000 0.56500000 0.56500000
C 28.20693494 5.24750693 35.30942215 4737 205 0 0.56500000 0.56500000 0.56500000
H 30.93864322 10.56972554 39.90582890 4738 205 0 1.00000000 1.00000000 1.00000000
H 29.73024658 11.77711421 39.43088404 4739 205 0 1.00000000 1.00000000 1.00000000
H 31.43776881 12.01013792 39.17734381 4740 205 0 1.00000000 1.00000000 1.00000000
H 31.46261436 10.56757492 37.36514925 4741 205 0 1.00000000 1.00000000 1.00000000
H 29.96646420 11.59408211 37.11836074 4742 205 0 1.00000000 1.00000000 1.00000000
H 28.92537504 9.60093376 38.39886235 4743 205 0 1.00000000 1.00000000 1.00000000
H 30.46869477 8.75716735 38.32717092 4744 205 0 1.00000000 1.00000000 1.00000000
H 30.39488434 8.72966355 35.85043129 4745 205 0 1.00000000 1.00000000 1.00000000
H 28.80052032 9.37192910 35.89520584 4746 205 0 1.00000000 1.00000000 1.00000000
H 28.12019330 7.21476511 37.05612458 4747 205 0 1.00000000 1.00000000 1.00000000
H 29.83346632 6.77459032 37.14097412 4748 205 0 1.00000000 1.00000000 1.00000000
H 29.95767511 6.22867329 34.79334437 4749 205 0 1.00000000 1.00000000 1.00000000
H 28.40089681 7.11460641 34.34159599 4750 205 0 1.00000000 1.00000000 1.00000000
H 28.71997073 4.74433245 36.19586038 4751 205 0 1.00000000 1.00000000 1.00000000
H 28.28649226 4.56587570 34.47430877 4752 205 0 1.00000000 1.00000000 1.00000000
H 27.16914110 5.45781893 35.52989973 4753 205 0 1.00000000 1.00000000 1.00000000
C 42.05425109 12.31571433 16.66463068 4754 206 0 0.56500000 0.56500000 0.56500000
C 41.93441546 12.47414066 15.16689576 4755 206 0 0.56500000 0.56500000 0.56500000
C 43.25515313 12.32951703 14.46496337 4756 206 0 0.56500000 0.56500000 0.56500000
C 44.36153703 13.25440667 14.99264720 4757 206 0 0.56500000 0.56500000 0.56500000
C 45.73214004 13.11777700 14.30812126 4758 206 0 0.56500000 0.56500000 0.56500000
C 46.65412428 12.07256059 15.00865452 4759 206 0 0.56500000 0.56500000 0.56500000
C 47.56441606 11.44596070 13.97387240 4760 206 0 0.56500000 0.56500000 0.56500000
H 41.06986543 12.32357508 17.14628585 4761 206 0 1.00000000 1.00000000 1.00000000
H 42.79087225 13.02174644 17.05629388 4762 206 0 1.00000000 1.00000000 1.00000000
H 42.35225184 11.20515447 16.78087431 4763 206 0 1.00000000 1.00000000 1.00000000
H 41.59929840 13.49641958 14.88235777 4764 206 0 1.00000000 1.00000000 1.00000000
H 41.25739185 11.72138812 14.72782162 4765 206 0 1.00000000 1.00000000 1.00000000
H 43.08466783 12.54045514 13.40380765 4766 206 0 1.00000000 1.00000000 1.00000000
H 43.63408368 11.29598599 14.58576849 4767 206 0 1.00000000 1.00000000 1.00000000
H 44.34415321 13.02001813 16.08257891 4768 206 0 1.00000000 1.00000000 1.00000000
H 43.97439640 14.34188761 14.91840975 4769 206 0 1.00000000 1.00000000 1.00000000
H 46.30547518 14.06931087 14.22449151 4770 206 0 1.00000000 1.00000000 1.00000000
H 45.49785982 12.75456085 13.30971935 4771 206 0 1.00000000 1.00000000 1.00000000
H 45.96873047 11.34287501 15.39658139 4772 206 0 1.00000000 1.00000000 1.00000000
H 47.16037237 12.59335053 15.88438539 4773 206 0 1.00000000 1.00000000 1.00000000
H 46.94224177 11.09379164 13.17267305 4774 206 0 1.00000000 1.00000000 1.00000000
H 48.15935275 10.56511366 14.23780394 4775 206 0 1.00000000 1.00000000 1.00000000
H 48.37786139 12.06331679 13.65014872 4776 206 0 1.00000000 1.00000000 1.00000000
C 24.75598096 43.96362376 24.00817969 4777 207 0 0.56500000 0.56500000 0.56500000
C 25.17988233 45.12019751 24.96517318 4778 207 0 0.56500000 0.56500000 0.56500000
C 26.32570576 44.69811161 25.86450053 4779 207 0 0.56500000 0.56500000 0.56500000
C 27.06666272 45.73985588 26.70480817 4780 207 0 0.56500000 0.56500000 0.56500000
C 28.04721275 45.03203026 27.65868654 4781 207 0 0.56500000 0.56500000 0.56500000
C 27.50089667 44.26135031 28.83855738 4782 207 0 0.56500000 0.56500000 0.56500000
C 26.88903089 45.09577144 29.92971451 4783 207 0 0.56500000 0.56500000 0.56500000
H 24.30372049 43.15366074 24.53668684 4784 207 0 1.00000000 1.00000000 1.00000000
H 25.63381629 43.47359920 23.53905508 4785 207 0 1.00000000 1.00000000 1.00000000
H 24.05521397 44.36554332 23.25399939 4786 207 0 1.00000000 1.00000000 1.00000000
H 24.33805680 45.34377220 25.65564903 4787 207 0 1.00000000 1.00000000 1.00000000
H 25.38348845 45.97649426 24.36069523 4788 207 0 1.00000000 1.00000000 1.00000000
H 27.07840196 44.29120816 25.22198663 4789 207 0 1.00000000 1.00000000 1.00000000
H 25.97029572 43.90968803 26.51518157 4790 207 0 1.00000000 1.00000000 1.00000000
H 26.29679317 46.23168027 27.32572804 4791 207 0 1.00000000 1.00000000 1.00000000
H 27.51056938 46.47628955 26.10091880 4792 207 0 1.00000000 1.00000000 1.00000000
H 28.77011515 45.77905882 27.98095981 4793 207 0 1.00000000 1.00000000 1.00000000
H 28.62520210 44.33694212 27.09089239 4794 207 0 1.00000000 1.00000000 1.00000000
H 28.28900743 43.56180159 29.27351071 4795 207 0 1.00000000 1.00000000 1.00000000
H 26.66929815 43.60896890 28.52369524 4796 207 0 1.00000000 1.00000000 1.00000000
H 25.83749159 45.38155119 29.68421468 4797 207 0 1.00000000 1.00000000 1.00000000
H 27.63909983 45.88684619 30.04711380 4798 207 0 1.00000000 1.00000000 1.00000000
H 26.72852252 44.63749534 30.93296934 4799 207 0 1.00000000 1.00000000 1.00000000
C 29.03097779 20.11576009 17.05072188 4800 208 0 0.56500000 0.56500000 0.56500000
C 27.92505133 19.47216379 16.31775141 4801 208 0 0.56500000 0.56500000 0.56500000
C 27.38194522 18.32830283 17.17791073 4802 208 0 0.56500000 0.56500000 0.56500000
C 28.19594095 17.04299003 16.89038526 4803 208 0 0.56500000 0.56500000 0.56500000
C 27.85149824 15.87255162 17.73389845 4804 208 0 0.56500000 0.56500000 0.56500000
C 28.01786951 14.56662450 17.01077243 4805 208 0 0.56500000 0.56500000 0.56500000
C 26.95610524 14.26336338 15.97578119 4806 208 0 0.56500000 0.56500000 0.56500000
H 29.58663987 20.92223435 16.54037522 4807 208 0 1.00000000 1.00000000 1.00000000
H 29.99679430 19.46805086 17.32655334 4808 208 0 1.00000000 1.00000000 1.00000000
H 28.71505290 20.55866797 18.01990636 4809 208 0 1.00000000 1.00000000 1.00000000
H 28.28443720 19.17312459 15.30892488 4810 208 0 1.00000000 1.00000000 1.00000000
H 27.06866378 20.19045042 16.25239080 4811 208 0 1.00000000 1.00000000 1.00000000
H 26.34704520 18.09284604 16.90371669 4812 208 0 1.00000000 1.00000000 1.00000000
H 27.45042439 18.63373491 18.25417537 4813 208 0 1.00000000 1.00000000 1.00000000
H 29.32806659 17.20315350 16.95667902 4814 208 0 1.00000000 1.00000000 1.00000000
H 27.95833463 16.82119441 15.82792366 4815 208 0 1.00000000 1.00000000 1.00000000
H 26.79373011 15.94828125 18.06150196 4816 208 0 1.00000000 1.00000000 1.00000000
H 28.39285138 15.78994675 18.68165497 4817 208 0 1.00000000 1.00000000 1.00000000
H 28.04967217 13.78139773 17.74467198 4818 208 0 1.00000000 1.00000000 1.00000000
H 28.97048238 14.63671903 16.50309931 4819 208 0 1.00000000 1.00000000 1.00000000
H 25.95657451 14.20287924 16.32060534 4820 208 0 1.00000000 1.00000000 1.00000000
H 27.22269798 13.31101332 15.43921810 4821 208 0 1.00000000 1.00000000 1.00000000
H 26.96556110 15.08673328 15.29338115 4822 208 0 1.00000000 1.00000000 1.00000000
C 15.41665523 5.43937416 38.92065410 4823 209 0 0.56500000 0.56500000 0.56500000
C 15.01898371 6.11563324 37.60328540 4824 209 0 0.56500000 0.56500000 0.56500000
C 13.57027995 6.47638641 37.42175367 4825 209 0 0.56500000 0.56500000 0.56500000
C 12.57157731 5.32157143 37.09239358 4826 209 0 0.56500000 0.56500000 0.56500000
C 11.12947487 5.73945749 37.35341591 4827 209 0 0.56500000 0.56500000 0.56500000
C 10.08869542 4.82051998 36.55478328 4828 209 0 0.56500000 0.56500000 0.56500000
C 8.63658229 5.10869268 36.94651685 4829 209 0 0.56500000 0.56500000 0.56500000
H 14.72410345 4.61390484 39.06779271 4830 209 0 1.00000000 1.00000000 1.00000000
H 15.19593229 6.11031050 39.78236446 4831 209 0 1.00000000 1.00000000 1.00000000
H 16.43559376 5.16290417 38.88706610 4832 209 0 1.00000000 1.00000000 1.00000000
H 15.34998806 5.36090075 36.82230616 4833 209 0 1.00000000 1.00000000 1.00000000
H 15.70212606 6.99803261 37.52138971 4834 209 0 1.00000000 1.00000000 1.00000000
H 13.48566799 7.11805341 36.51267074 4835 209 0 1.00000000 1.00000000 1.00000000
H 13.21715031 7.16696464 38.24991347 4836 209 0 1.00000000 1.00000000 1.00000000
H 12.81644539 4.43568896 37.69781050 4837 209 0 1.00000000 1.00000000 1.00000000
H 12.66950057 4.95771705 36.07950583 4838 209 0 1.00000000 1.00000000 1.00000000
H 10.91326880 6.77708550 36.99554105 4839 209 0 1.00000000 1.00000000 1.00000000
H 10.88616072 5.73482589 38.45735186 4840 209 0 1.00000000 1.00000000 1.00000000
H 10.44672495 3.82800991 36.82781557 4841 209 0 1.00000000 1.00000000 1.00000000
H 10.31447954 4.99174772 35.47563284 4842 209 0 1.00000000 1.00000000 1.00000000
H 8.27048167 5.90683666 36.35209559 4843 209 0 1.00000000 1.00000000 1.00000000
H 8.60864414 5.36789257 38.02428525 4844 209 0 1.00000000 1.00000000 1.00000000
H 7.92965099 4.25960634 36.80094166 4845 209 0 1.00000000 1.00000000 1.00000000
C 8.00716428 45.89658488 42.54542787 4846 210 0 0.56500000 0.56500000 0.56500000
C 7.57565862 46.18061725 41.09911788 4847 210 0 0.56500000 0.56500000 0.56500000
C 7.77174335 44.94180903 40.16705677 4848 210 0 0.56500000 0.56500000 0.56500000
C 7.50088700 45.34789592 38.67032364 4849 210 0 0.56500000 0.56500000 0.56500000
C 8.73447601 45.67817725 37.90865477 4850 210 0 0.56500000 0.56500000 0.56500000
C 9.91915596 44.65280855 38.00232946 4851 210 0 0.56500000 0.56500000 0.56500000
C 9.67597120 43.25404198 37.54199410 4852 210 0 0.56500000 0.56500000 0.56500000
H 7.42991051 45.06618701 42.97306271 4853 210 0 1.00000000 1.00000000 1.00000000
H 8.04046677 46.79606744 43.23135053 4854 210 0 1.00000000 1.00000000 1.00000000
H 9.07379850 45.53464380 42.55451766 4855 210 0 1.00000000 1.00000000 1.00000000
H 8.18939941 46.96563923 40.65573267 4856 210 0 1.00000000 1.00000000 1.00000000
H 6.44271052 46.43514530 41.16054787 4857 210 0 1.00000000 1.00000000 1.00000000
H 7.13295815 44.14897701 40.52598224 4858 210 0 1.00000000 1.00000000 1.00000000
H 8.82382988 44.58769904 40.33698495 4859 210 0 1.00000000 1.00000000 1.00000000
H 6.83626061 46.24731196 38.57350232 4860 210 0 1.00000000 1.00000000 1.00000000
H 6.97175896 44.45485362 38.24927726 4861 210 0 1.00000000 1.00000000 1.00000000
H 9.08845916 46.66434782 38.28728452 4862 210 0 1.00000000 1.00000000 1.00000000
H 8.41781854 45.88636629 36.84786912 4863 210 0 1.00000000 1.00000000 1.00000000
H 10.32907807 44.73439791 38.99568029 4864 210 0 1.00000000 1.00000000 1.00000000
H 10.69621730 44.98920791 37.26788036 4865 210 0 1.00000000 1.00000000 1.00000000
H 10.64348694 42.69682080 37.58180645 4866 210 0 1.00000000 1.00000000 1.00000000
H 9.24398823 43.29983008 36.54384156 4867 210 0 1.00000000 1.00000000 1.00000000
H 8.95801093 42.73252251 38.13939838 4868 210 0 1.00000000 1.00000000 1.00000000
C 3.78790208 23.20441687 40.70503534 4869 211 0 0.56500000 0.56500000 0.56500000
C 5.20893502 23.77514807 41.12255354 4870 211 0 0.56500000 0.56500000 0.56500000
C 6.37669326 22.81868085 40.75264302 4871 211 0 0.56500000 0.56500000 0.56500000
C 7.82498579 22.91733423 41.20756104 4872 211 0 0.56500000 0.56500000 0.56500000
C 8.72019228 23.96543957 40.60311629 4873 211 0 0.56500000 0.56500000 0.56500000
C 8.46799528 25.38539020 41.04269181 4874 211 0 0.56500000 0.56500000 0.56500000
C 9.66295166 26.24122167 40.86406465 4875 211 0 0.56500000 0.56500000 0.56500000
H 3.45302950 22.60133058 41.51200451 4876 211 0 1.00000000 1.00000000 1.00000000
H 3.89230870 22.68407796 39.76445289 4877 211 0 1.00000000 1.00000000 1.00000000
H 3.14707530 24.05374215 40.67607006 4878 211 0 1.00000000 1.00000000 1.00000000
H 5.18954030 24.02632619 42.19164119 4879 211 0 1.00000000 1.00000000 1.00000000
H 5.45413266 24.72096674 40.63615468 4880 211 0 1.00000000 1.00000000 1.00000000
H 6.39905349 22.68184544 39.66498519 4881 211 0 1.00000000 1.00000000 1.00000000
H 6.11994320 21.82150926 41.10651447 4882 211 0 1.00000000 1.00000000 1.00000000
H 8.29530872 21.91583205 41.21602234 4883 211 0 1.00000000 1.00000000 1.00000000
H 7.81571467 23.12833401 42.29374209 4884 211 0 1.00000000 1.00000000 1.00000000
H 8.60555479 23.92449445 39.51880765 4885 211 0 1.00000000 1.00000000 1.00000000
H 9.77049675 23.79604984 40.92487978 4886 211 0 1.00000000 1.00000000 1.00000000
H 8.05350129 25.33098391 42.06041353 4887 211 0 1.00000000 1.00000000 1.00000000
H 7.62772012 25.80536212 40.47052586 4888 211 0 1.00000000 1.00000000 1.00000000
H 9.91875424 26.35142643 39.81282946 4889 211 0 1.00000000 1.00000000 1.00000000
H 10.60255548 25.96496363 41.45637436 4890 211 0 1.00000000 1.00000000 1.00000000
H 9.41262531 27.31185533 41.08223499 4891 211 0 1.00000000 1.00000000 1.00000000
C 34.11518893 33.65871644 9.24520361 4892 212 0 0.56500000 0.56500000 0.56500000
C 35.50925069 33.82790911 8.51296405 4893 212 0 0.56500000 0.56500000 0.56500000
C 35.25494009 34.64658804 7.26960281 4894 212 0 0.56500000 0.56500000 0.56500000
C 36.55826313 34.72988173 6.40812144 4895 212 0 0.56500000 0.56500000 0.56500000
C 36.52567422 35.54877610 5.13133376 4896 212 0 0.56500000 0.56500000 0.56500000
C 35.83243304 36.97232925 5.14084028 4897 212 0 0.56500000 0.56500000 0.56500000
C 34.38924888 37.15829480 4.60855544 4898 212 0 0.56500000 0.56500000 0.56500000
H 33.63917655 34.63727500 9.22527815 4899 212 0 1.00000000 1.00000000 1.00000000
H 34.21445651 33.39380000 10.25534447 4900 212 0 1.00000000 1.00000000 1.00000000
H 33.36455321 33.08065056 8.76879128 4901 212 0 1.00000000 1.00000000 1.00000000
H 35.90323398 32.80830168 8.27049393 4902 212 0 1.00000000 1.00000000 1.00000000
H 36.27831714 34.26355474 9.24731436 4903 212 0 1.00000000 1.00000000 1.00000000
H 34.97845128 35.66936723 7.54818793 4904 212 0 1.00000000 1.00000000 1.00000000
H 34.37287175 34.25167754 6.72708812 4905 212 0 1.00000000 1.00000000 1.00000000
H 36.74677335 33.69552970 6.15976534 4906 212 0 1.00000000 1.00000000 1.00000000
H 37.39665536 35.04696439 7.04749079 4907 212 0 1.00000000 1.00000000 1.00000000
H 36.02374390 34.88469640 4.38609998 4908 212 0 1.00000000 1.00000000 1.00000000
H 37.63490222 35.73008583 4.75132121 4909 212 0 1.00000000 1.00000000 1.00000000
H 36.46301038 37.64871535 4.49843277 4910 212 0 1.00000000 1.00000000 1.00000000
H 35.92715697 37.29910109 6.23067316 4911 212 0 1.00000000 1.00000000 1.00000000
H 33.85098521 38.12840481 4.72506157 4912 212 0 1.00000000 1.00000000 1.00000000
H 33.75256056 36.43222847 5.18824661 4913 212 0 1.00000000 1.00000000 1.00000000
H 34.29461287 37.04502267 3.49613625 4914 212 0 1.00000000 1.00000000 1.00000000
C -2.81598749 42.93374290 11.28580191 4915 213 0 0.56500000 0.56500000 0.56500000
C -1.37987811 42.79969075 10.79787390 4916 213 0 0.56500000 0.56500000 0.56500000
C -0.35591692 42.76024849 11.92228975 4917 213 0 0.56500000 0.56500000 0.56500000
C 1.10502160 42.82706292 11.47472324 4918 213 0 0.56500000 0.56500000 0.56500000
C 1.47815427 44.13025189 10.85909184 4919 213 0 0.56500000 0.56500000 0.56500000
C 3.00152110 44.30474824 10.58606290 4920 213 0 0.56500000 0.56500000 0.56500000
C 3.36654087 45.79628680 10.45875118 4921 213 0 0.56500000 0.56500000 0.56500000
H -3.60855678 43.20783353 10.53129571 4922 213 0 1.00000000 1.00000000 1.00000000
H -2.85084853 43.77589458 11.91319639 4923 213 0 1.00000000 1.00000000 1.00000000
H -3.19428061 42.04232908 11.76557445 4924 213 0 1.00000000 1.00000000 1.00000000
H -1.15421653 43.68221025 10.09211664 4925 213 0 1.00000000 1.00000000 1.00000000
H -1.21659285 41.97291480 10.18900042 4926 213 0 1.00000000 1.00000000 1.00000000
H -0.43791336 41.89083375 12.57384490 4927 213 0 1.00000000 1.00000000 1.00000000
H -0.46914091 43.63893275 12.51796732 4928 213 0 1.00000000 1.00000000 1.00000000
H 1.28725645 42.05024497 10.65567781 4929 213 0 1.00000000 1.00000000 1.00000000
H 1.82961974 42.63668097 12.28189430 4930 213 0 1.00000000 1.00000000 1.00000000
H 1.22306269 44.95089377 11.47091435 4931 213 0 1.00000000 1.00000000 1.00000000
H 0.93756050 44.32791278 9.92670340 4932 213 0 1.00000000 1.00000000 1.00000000
H 3.33587948 43.70642184 9.69350369 4933 213 0 1.00000000 1.00000000 1.00000000
H 3.52766184 43.91269737 11.46343532 4934 213 0 1.00000000 1.00000000 1.00000000
H 2.96674137 46.28254071 9.57197792 4935 213 0 1.00000000 1.00000000 1.00000000
H 4.43351425 46.03354364 10.42999927 4936 213 0 1.00000000 1.00000000 1.00000000
H 2.88101665 46.27156387 11.41219955 4937 213 0 1.00000000 1.00000000 1.00000000
C 39.01474239 23.49829066 23.99894527 4938 214 0 0.56500000 0.56500000 0.56500000
C 39.23885543 23.64738008 22.50947486 4939 214 0 0.56500000 0.56500000 0.56500000
C 38.38330784 22.75153828 21.64671225 4940 214 0 0.56500000 0.56500000 0.56500000
C 36.83632774 23.07137197 21.80848858 4941 214 0 0.56500000 0.56500000 0.56500000
C 36.02507986 22.41621265 20.67204179 4942 214 0 0.56500000 0.56500000 0.56500000
C 35.95219311 20.93897747 20.62731761 4943 214 0 0.56500000 0.56500000 0.56500000
C 34.85689089 20.40450950 19.73994794 4944 214 0 0.56500000 0.56500000 0.56500000
H 37.96118104 23.42908992 24.23882260 4945 214 0 1.00000000 1.00000000 1.00000000
H 39.47527213 24.27917892 24.63617144 4946 214 0 1.00000000 1.00000000 1.00000000
H 39.32348692 22.49396313 24.34307902 4947 214 0 1.00000000 1.00000000 1.00000000
H 40.33548188 23.42059329 22.22263468 4948 214 0 1.00000000 1.00000000 1.00000000
H 39.02776210 24.66518144 22.19922149 4949 214 0 1.00000000 1.00000000 1.00000000
H 38.59886393 21.71077036 21.93661771 4950 214 0 1.00000000 1.00000000 1.00000000
H 38.53316804 22.87781855 20.60083217 4951 214 0 1.00000000 1.00000000 1.00000000
H 36.69079838 24.12501495 21.73431017 4952 214 0 1.00000000 1.00000000 1.00000000
H 36.45085863 22.65486176 22.75686504 4953 214 0 1.00000000 1.00000000 1.00000000
H 36.45243574 22.77621640 19.72099125 4954 214 0 1.00000000 1.00000000 1.00000000
H 34.95691855 22.82427911 20.75291655 4955 214 0 1.00000000 1.00000000 1.00000000
H 35.80124051 20.52117965 21.65765756 4956 214 0 1.00000000 1.00000000 1.00000000
H 36.89101226 20.46963525 20.27922395 4957 214 0 1.00000000 1.00000000 1.00000000
H 33.87997188 20.90233995 19.99867938 4958 214 0 1.00000000 1.00000000 1.00000000
H 34.74832714 19.35752426 19.96987733 4959 214 0 1.00000000 1.00000000 1.00000000
H 34.98154406 20.51952227 18.62369820 4960 214 0 1.00000000 1.00000000 1.00000000
C 30.89068665 17.91696671 35.73887918 4961 215 0 0.56500000 0.56500000 0.56500000
C 31.75281928 19.14210946 35.46768953 4962 215 0 0.56500000 0.56500000 0.56500000
C 33.01313552 18.78062386 34.70184317 4963 215 0 0.56500000 0.56500000 0.56500000
C 33.74596678 19.92011707 34.09724682 4964 215 0 0.56500000 0.56500000 0.56500000
C 32.93009522 20.63580363 32.94978367 4965 215 0 0.56500000 0.56500000 0.56500000
C 33.81535047 21.12432147 31.80529705 4966 215 0 0.56500000 0.56500000 0.56500000
C 34.37585140 20.08629343 30.87807591 4967 215 0 0.56500000 0.56500000 0.56500000
H 31.54440680 17.20458274 36.29239594 4968 215 0 1.00000000 1.00000000 1.00000000
H 30.48465830 17.40423102 34.86113916 4969 215 0 1.00000000 1.00000000 1.00000000
H 30.10711658 18.15943326 36.47006216 4970 215 0 1.00000000 1.00000000 1.00000000
H 32.18589056 19.72563231 36.36265575 4971 215 0 1.00000000 1.00000000 1.00000000
H 31.21667911 19.86893444 34.90229226 4972 215 0 1.00000000 1.00000000 1.00000000
H 32.76900512 18.02102030 33.90030880 4973 215 0 1.00000000 1.00000000 1.00000000
H 33.74497622 18.16482187 35.33400352 4974 215 0 1.00000000 1.00000000 1.00000000
H 34.65445033 19.54348686 33.70823266 4975 215 0 1.00000000 1.00000000 1.00000000
H 34.11142750 20.67316055 34.80101172 4976 215 0 1.00000000 1.00000000 1.00000000
H 32.37337134 21.50003763 33.38522618 4977 215 0 1.00000000 1.00000000 1.00000000
H 32.06590966 20.11404043 32.60472638 4978 215 0 1.00000000 1.00000000 1.00000000
H 34.56676064 21.80743673 32.27191734 4979 215 0 1.00000000 1.00000000 1.00000000
H 33.19047081 21.87132718 31.26687271 4980 215 0 1.00000000 1.00000000 1.00000000
H 35.31561742 19.63212834 31.21211011 4981 215 0 1.00000000 1.00000000 1.00000000
H 34.69980103 20.64865821 30.04079849 4982 215 0 1.00000000 1.00000000 1.00000000
H 33.63831725 19.33640531 30.60233616 4983 215 0 1.00000000 1.00000000 1.00000000
C 44.13776606 22.42770648 26.54216209 4984 216 0 0.56500000 0.56500000 0.56500000
C 44.14455644 21.32177487 25.41251435 4985 216 0 0.56500000 0.56500000 0.56500000
C 45.20477229 21.38673615 24.34815543 4986 216 0 0.56500000 0.56500000 0.56500000
C 46.66948206 21.43720662 24.76220630 4987 216 0 0.56500000 0.56500000 0.56500000
C 47.53091151 21.35659914 23.47337853 4988 216 0 0.56500000 0.56500000 0.56500000
C 49.05885029 21.26453972 23.77355034 4989 216 0 0.56500000 0.56500000 0.56500000
C 50.07958496 21.04085536 22.69711191 4990 216 0 0.56500000 0.56500000 0.56500000
H 44.46240910 23.33122533 25.99608513 4991 216 0 1.00000000 1.00000000 1.00000000
H 44.83614440 22.11920411 27.31129664 4992 216 0 1.00000000 1.00000000 1.00000000
H 43.11282911 22.40966279 26.96041297 4993 216 0 1.00000000 1.00000000 1.00000000
H 43.18483383 21.32485045 24.86967794 4994 216 0 1.00000000 1.00000000 1.00000000
H 44.06784040 20.35642738 25.93820706 4995 216 0 1.00000000 1.00000000 1.00000000
H 45.00276162 22.27524973 23.80646513 4996 216 0 1.00000000 1.00000000 1.00000000
H 45.05056817 20.53011116 23.68511125 4997 216 0 1.00000000 1.00000000 1.00000000
H 46.95585023 20.66733204 25.49442920 4998 216 0 1.00000000 1.00000000 1.00000000
H 46.88601289 22.38496529 25.31707826 4999 216 0 1.00000000 1.00000000 1.00000000
H 47.15494243 22.22092235 22.90786796 5000 216 0 1.00000000 1.00000000 1.00000000
H 47.20916223 20.52812618 22.90261061 5001 216 0 1.00000000 1.00000000 1.00000000
H 49.20866222 20.59182006 24.59091010 5002 216 0 1.00000000 1.00000000 1.00000000
H 49.31970928 22.14181635 24.29248113 5003 216 0 1.00000000 1.00000000 1.00000000
H 51.14225704 20.90622809 23.08815555 5004 216 0 1.00000000 1.00000000 1.00000000
H 50.18677792 21.95241003 22.09492885 5005 216 0 1.00000000 1.00000000 1.00000000
H 49.79281553 20.24865241 21.94597224 5006 216 0 1.00000000 1.00000000 1.00000000
C 5.85576400 33.05585522 14.87452342 5007 217 0 0.56500000 0.56500000 0.56500000
C 5.88918299 34.49787581 14.41899182 5008 217 0 0.56500000 0.56500000 0.56500000
C 5.96420541 35.41690274 15.58371392 5009 217 0 0.56500000 0.56500000 0.56500000
C 6.23790158 36.92233014 15.31034046 5010 217 0 0.56500000 0.56500000 0.56500000
C 5.18346971 37.59685581 14.50747987 5011 217 0 0.56500000 0.56500000 0.56500000
C 5.54116279 38.93049202 13.90090156 5012 217 0 0.56500000 0.56500000 0.56500000
C 6.02499118 40.00406156 14.88298055 5013 217 0 0.56500000 0.56500000 0.56500000
H 6.75504161 32.82415919 15.34500331 5014 217 0 1.00000000 1.00000000 1.00000000
H 5.84572226 32.35528472 14.02745540 5015 217 0 1.00000000 1.00000000 1.00000000
H 5.05411117 32.78311349 15.59616011 5016 217 0 1.00000000 1.00000000 1.00000000
H 5.13063111 34.77128992 13.73887942 5017 217 0 1.00000000 1.00000000 1.00000000
H 6.76762531 34.71535761 13.84645588 5018 217 0 1.00000000 1.00000000 1.00000000
H 6.83814728 35.08622382 16.23041945 5019 217 0 1.00000000 1.00000000 1.00000000
H 5.21534785 35.18982135 16.28733177 5020 217 0 1.00000000 1.00000000 1.00000000
H 7.16781523 36.92472977 14.75353180 5021 217 0 1.00000000 1.00000000 1.00000000
H 6.39873702 37.42705506 16.26854540 5022 217 0 1.00000000 1.00000000 1.00000000
H 4.28514800 37.78229621 15.11674572 5023 217 0 1.00000000 1.00000000 1.00000000
H 4.92218020 36.97704429 13.66135429 5024 217 0 1.00000000 1.00000000 1.00000000
H 4.79416221 39.23344451 13.24767195 5025 217 0 1.00000000 1.00000000 1.00000000
H 6.43698116 38.79618518 13.26168723 5026 217 0 1.00000000 1.00000000 1.00000000
H 6.07696069 40.98871269 14.44973661 5027 217 0 1.00000000 1.00000000 1.00000000
H 7.01627870 39.60751606 15.22712769 5028 217 0 1.00000000 1.00000000 1.00000000
H 5.34697202 40.00943770 15.74298728 5029 217 0 1.00000000 1.00000000 1.00000000
C 29.31945674 23.50852621 8.11719657 5030 218 0 0.56500000 0.56500000 0.56500000
C 29.91149849 23.76378565 9.48808646 5031 218 0 0.56500000 0.56500000 0.56500000
C 30.79080945 22.62570469 9.92377970 5032 218 0 0.56500000 0.56500000 0.56500000
C 31.76368513 23.00387300 11.09606640 5033 218 0 0.56500000 0.56500000 0.56500000
C 30.97684447 23.50923530 12.35892632 5034 218 0 0.56500000 0.56500000 0.56500000
C 29.86996647 22.53269901 12.85303377 5035 218 0 0.56500000 0.56500000 0.56500000
C 29.12832797 22.89834937 14.07069432 5036 218 0 0.56500000 0.56500000 0.56500000
H 30.09812245 23.60854674 7.38402662 5037 218 0 1.00000000 1.00000000 1.00000000
H 28.56324053 24.22398004 7.80754210 5038 218 0 1.00000000 1.00000000 1.00000000
H 28.96837469 22.45337351 8.18204987 5039 218 0 1.00000000 1.00000000 1.00000000
H 29.07543388 23.85403366 10.18867307 5040 218 0 1.00000000 1.00000000 1.00000000
H 30.46715875 24.70640301 9.50493323 5041 218 0 1.00000000 1.00000000 1.00000000
H 31.38157808 22.43556413 9.01937184 5042 218 0 1.00000000 1.00000000 1.00000000
H 30.07056037 21.91868079 10.18349521 5043 218 0 1.00000000 1.00000000 1.00000000
H 32.41076342 23.84424580 10.78926582 5044 218 0 1.00000000 1.00000000 1.00000000
H 32.36303354 22.12256586 11.36384739 5045 218 0 1.00000000 1.00000000 1.00000000
H 30.65637863 24.45917361 12.03917897 5046 218 0 1.00000000 1.00000000 1.00000000
H 31.75489668 23.68953255 13.07892961 5047 218 0 1.00000000 1.00000000 1.00000000
H 30.32828594 21.55602508 12.96550230 5048 218 0 1.00000000 1.00000000 1.00000000
H 29.14863006 22.35739651 11.99624466 5049 218 0 1.00000000 1.00000000 1.00000000
H 29.81149987 22.96622310 14.89592916 5050 218 0 1.00000000 1.00000000 1.00000000
H 28.46835198 22.04147631 14.21353624 5051 218 0 1.00000000 1.00000000 1.00000000
H 28.46400563 23.81148200 13.98451548 5052 218 0 1.00000000 1.00000000 1.00000000
C 19.27000529 35.05489439 21.38728716 5053 219 0 0.56500000 0.56500000 0.56500000
C 18.10901826 34.18526228 20.98037726 5054 219 0 0.56500000 0.56500000 0.56500000
C 18.06302607 32.83703873 21.70483380 5055 219 0 0.56500000 0.56500000 0.56500000
C 17.37308879 31.75711730 20.88469052 5056 219 0 0.56500000 0.56500000 0.56500000
C 16.99409566 30.50315467 21.70487003 5057 219 0 0.56500000 0.56500000 0.56500000
C 16.46558052 29.41226558 20.70336783 5058 219 0 0.56500000 0.56500000 0.56500000
C 15.03048884 29.68248830 20.31295000 5059 219 0 0.56500000 0.56500000 0.56500000
H 19.18073884 35.24091579 22.47911501 5060 219 0 1.00000000 1.00000000 1.00000000
H 19.24977329 36.06393883 20.89047267 5061 219 0 1.00000000 1.00000000 1.00000000
H 20.22441102 34.54646887 21.25786587 5062 219 0 1.00000000 1.00000000 1.00000000
H 18.11133110 33.95705590 19.92374270 5063 219 0 1.00000000 1.00000000 1.00000000
H 17.15199337 34.78339402 21.20890685 5064 219 0 1.00000000 1.00000000 1.00000000
H 17.54578972 32.90270564 22.61472558 5065 219 0 1.00000000 1.00000000 1.00000000
H 19.16136064 32.58542645 21.90472385 5066 219 0 1.00000000 1.00000000 1.00000000
H 17.91181080 31.54745533 19.95339383 5067 219 0 1.00000000 1.00000000 1.00000000
H 16.38068153 32.25351782 20.68941328 5068 219 0 1.00000000 1.00000000 1.00000000
H 16.25391556 30.81729457 22.45164131 5069 219 0 1.00000000 1.00000000 1.00000000
H 17.85286246 30.22429150 22.34595849 5070 219 0 1.00000000 1.00000000 1.00000000
H 16.67141642 28.46197158 21.08372086 5071 219 0 1.00000000 1.00000000 1.00000000
H 17.04486226 29.64959876 19.83095113 5072 219 0 1.00000000 1.00000000 1.00000000
H 14.51125749 28.92846313 19.67656834 5073 219 0 1.00000000 1.00000000 1.00000000
H 14.90041168 30.68823175 19.85468849 5074 219 0 1.00000000 1.00000000 1.00000000
H 14.39345085 29.78672511 21.19285554 5075 219 0 1.00000000 1.00000000 1.00000000
C 11.10516264 18.17324994 23.45080337 5076 220 0 0.56500000 0.56500000 0.56500000
C 12.43830932 18.54606247 24.08858385 5077 220 0 0.56500000 0.56500000 0.56500000
C 12.43082747 19.96646708 24.59221391 5078 220 0 0.56500000 0.56500000 0.56500000
C 13.66099332 20.31039027 25.41635739 5079 220 0 0.56500000 0.56500000 0.56500000
C 14.98710433 20.34066160 24.59173773 5080 220 0 0.56500000 0.56500000 0.56500000
C 15.09191338 21.28142395 23.39437225 5081 220 0 0.56500000 0.56500000 0.56500000
C 16.29567904 21.06201454 22.44613099 5082 220 0 0.56500000 0.56500000 0.56500000
H 10.77887583 18.95616145 22.83640050 5083 220 0 1.00000000 1.00000000 1.00000000
H 10.38353319 17.98769444 24.26603845 5084 220 0 1.00000000 1.00000000 1.00000000
H 11.17915080 17.34475567 22.83755277 5085 220 0 1.00000000 1.00000000 1.00000000
H 13.30990050 18.31197646 23.47102569 5086 220 0 1.00000000 1.00000000 1.00000000
H 12.59072661 17.87047102 24.94332098 5087 220 0 1.00000000 1.00000000 1.00000000
H 11.55869629 19.98084017 25.26076193 5088 220 0 1.00000000 1.00000000 1.00000000
H 12.15322703 20.69117619 23.83061830 5089 220 0 1.00000000 1.00000000 1.00000000
H 13.75320142 19.51580729 26.19127809 5090 220 0 1.00000000 1.00000000 1.00000000
H 13.57494186 21.23312852 25.90824501 5091 220 0 1.00000000 1.00000000 1.00000000
H 15.19778560 19.33436554 24.19889626 5092 220 0 1.00000000 1.00000000 1.00000000
H 15.80546745 20.48736190 25.28144470 5093 220 0 1.00000000 1.00000000 1.00000000
H 15.01133439 22.30801621 23.69156001 5094 220 0 1.00000000 1.00000000 1.00000000
H 14.15811089 21.10013195 22.87833826 5095 220 0 1.00000000 1.00000000 1.00000000
H 17.25620063 21.28330526 22.78904242 5096 220 0 1.00000000 1.00000000 1.00000000
H 16.17676651 21.77246967 21.62994474 5097 220 0 1.00000000 1.00000000 1.00000000
H 16.31839739 20.05991281 22.08140991 5098 220 0 1.00000000 1.00000000 1.00000000
C 33.95238330 29.82203749 28.69560823 5099 221 0 0.56500000 0.56500000 0.56500000
C 34.60944757 31.14984616 28.50991041 5100 221 0 0.56500000 0.56500000 0.56500000
C 33.85130450 32.13966863 27.62190713 5101 221 0 0.56500000 0.56500000 0.56500000
C 34.36457969 33.64360278 27.66493682 5102 221 0 0.56500000 0.56500000 0.56500000
C 35.03838825 34.10240719 26.42784721 5103 221 0 0.56500000 0.56500000 0.56500000
C 35.47421720 35.56173137 26.36689061 5104 221 0 0.56500000 0.56500000 0.56500000
C 36.10045706 35.92347141 25.01709085 5105 221 0 0.56500000 0.56500000 0.56500000
H 32.97122590 29.96308012 29.09856737 5106 221 0 1.00000000 1.00000000 1.00000000
H 34.59170946 29.15846940 29.27673398 5107 221 0 1.00000000 1.00000000 1.00000000
H 33.77383543 29.31988042 27.70784997 5108 221 0 1.00000000 1.00000000 1.00000000
H 35.64012461 31.01338584 28.06832018 5109 221 0 1.00000000 1.00000000 1.00000000
H 34.64852055 31.72204078 29.47221455 5110 221 0 1.00000000 1.00000000 1.00000000
H 32.80878396 32.08489631 27.89707341 5111 221 0 1.00000000 1.00000000 1.00000000
H 33.80575780 31.68548375 26.59600364 5112 221 0 1.00000000 1.00000000 1.00000000
H 35.06242754 33.69164032 28.54331411 5113 221 0 1.00000000 1.00000000 1.00000000
H 33.43553669 34.19450694 27.81302677 5114 221 0 1.00000000 1.00000000 1.00000000
H 34.42423569 33.82766027 25.58767724 5115 221 0 1.00000000 1.00000000 1.00000000
H 35.96414604 33.54832741 26.28621911 5116 221 0 1.00000000 1.00000000 1.00000000
H 36.17561251 35.73487741 27.20492866 5117 221 0 1.00000000 1.00000000 1.00000000
H 34.61804931 36.13852832 26.69135356 5118 221 0 1.00000000 1.00000000 1.00000000
H 36.99953203 35.35998959 25.01202897 5119 221 0 1.00000000 1.00000000 1.00000000
H 36.34217764 36.98613902 24.91140695 5120 221 0 1.00000000 1.00000000 1.00000000
H 35.50663181 35.67656968 24.16554267 5121 221 0 1.00000000 1.00000000 1.00000000
C 25.70616606 18.02595459 -0.95248431 5122 222 0 0.56500000 0.56500000 0.56500000
C 26.56496729 17.00070292 -0.21392112 5123 222 0 0.56500000 0.56500000 0.56500000
C 27.58346856 17.66231110 0.64465340 5124 222 0 0.56500000 0.56500000 0.56500000
C 28.47923330 16.69339266 1.44156949 5125 222 0 0.56500000 0.56500000 0.56500000
C 27.73824266 15.81050015 2.42369975 5126 222 0 0.56500000 0.56500000 0.56500000
C 28.73000051 14.91278024 3.18922971 5127 222 0 0.56500000 0.56500000 0.56500000
C 28.05433862 14.07284845 4.27405137 5128 222 0 0.56500000 0.56500000 0.56500000
H 25.06058339 18.55737838 -0.27648772 5129 222 0 1.00000000 1.00000000 1.00000000
H 25.16895793 17.54694711 -1.78854319 5130 222 0 1.00000000 1.00000000 1.00000000
H 26.31242721 18.79576696 -1.43315394 5131 222 0 1.00000000 1.00000000 1.00000000
H 26.97447264 16.29257658 -0.97112276 5132 222 0 1.00000000 1.00000000 1.00000000
H 25.98038564 16.31433660 0.40050868 5133 222 0 1.00000000 1.00000000 1.00000000
H 27.04445216 18.30307782 1.39267249 5134 222 0 1.00000000 1.00000000 1.00000000
H 28.35581540 18.28773107 0.10941708 5135 222 0 1.00000000 1.00000000 1.00000000
H 29.29075430 17.20791723 1.94612657 5136 222 0 1.00000000 1.00000000 1.00000000
H 29.01887034 16.03197041 0.75702745 5137 222 0 1.00000000 1.00000000 1.00000000
H 26.91877436 15.16017511 1.94682590 5138 222 0 1.00000000 1.00000000 1.00000000
H 27.26902865 16.46488759 3.24677301 5139 222 0 1.00000000 1.00000000 1.00000000
H 29.50686380 15.51753851 3.67000618 5140 222 0 1.00000000 1.00000000 1.00000000
H 29.16854173 14.19220708 2.49684052 5141 222 0 1.00000000 1.00000000 1.00000000
H 27.33140986 14.61064869 4.89761346 5142 222 0 1.00000000 1.00000000 1.00000000
H 28.75336823 13.74729271 5.03628192 5143 222 0 1.00000000 1.00000000 1.00000000
H 27.48758702 13.17535341 3.90516943 5144 222 0 1.00000000 1.00000000 1.00000000
C 42.84159263 11.95954795 -3.40548540 5145 223 0 0.56500000 0.56500000 0.56500000
C 42.77880085 11.75690359 -1.91708685 5146 223 0 0.56500000 0.56500000 0.56500000
C 42.39765729 13.08746689 -1.24397469 5147 223 0 0.56500000 0.56500000 0.56500000
C 42.72707677 13.23284433 0.26632501 5148 223 0 0.56500000 0.56500000 0.56500000
C 41.80528000 12.39533745 1.20023512 5149 223 0 0.56500000 0.56500000 0.56500000
C 42.33538903 12.33361897 2.63946662 5150 223 0 0.56500000 0.56500000 0.56500000
C 43.53261939 11.45503622 2.85521803 5151 223 0 0.56500000 0.56500000 0.56500000
H 41.87196000 12.38168997 -3.75547766 5152 223 0 1.00000000 1.00000000 1.00000000
H 43.07675593 11.09063539 -4.08660216 5153 223 0 1.00000000 1.00000000 1.00000000
H 43.44812150 12.83528028 -3.62700600 5154 223 0 1.00000000 1.00000000 1.00000000
H 43.77571255 11.50510041 -1.47468035 5155 223 0 1.00000000 1.00000000 1.00000000
H 42.06833337 10.96957500 -1.65914436 5156 223 0 1.00000000 1.00000000 1.00000000
H 41.36624544 13.41531987 -1.47389275 5157 223 0 1.00000000 1.00000000 1.00000000
H 42.97525456 13.90404375 -1.67330507 5158 223 0 1.00000000 1.00000000 1.00000000
H 42.56482565 14.27816909 0.64758953 5159 223 0 1.00000000 1.00000000 1.00000000
H 43.79184069 12.92369793 0.38879992 5160 223 0 1.00000000 1.00000000 1.00000000
H 41.71542061 11.35483080 0.85304305 5161 223 0 1.00000000 1.00000000 1.00000000
H 40.78582784 12.78313717 1.08708276 5162 223 0 1.00000000 1.00000000 1.00000000
H 41.55788183 11.89965126 3.23657835 5163 223 0 1.00000000 1.00000000 1.00000000
H 42.48490889 13.44178161 3.04397992 5164 223 0 1.00000000 1.00000000 1.00000000
H 43.31119964 10.38808938 2.59814857 5165 223 0 1.00000000 1.00000000 1.00000000
H 43.78605245 11.48339117 3.90040050 5166 223 0 1.00000000 1.00000000 1.00000000
H 44.46982637 11.77351842 2.44236947 5167 223 0 1.00000000 1.00000000 1.00000000
C 34.60367797 32.16050993 15.81916628 5168 224 0 0.56500000 0.56500000 0.56500000
C 34.24504208 30.75852148 16.40431004 5169 224 0 0.56500000 0.56500000 0.56500000
C 34.56778055 30.63195262 17.94084741 5170 224 0 0.56500000 0.56500000 0.56500000
C 33.62240747 31.35662085 18.93682090 5171 224 0 0.56500000 0.56500000 0.56500000
C 34.31374446 31.76923338 20.24646077 5172 224 0 0.56500000 0.56500000 0.56500000
C 33.36351983 32.57301590 21.11821703 5173 224 0 0.56500000 0.56500000 0.56500000
C 33.94338839 32.85076690 22.50760977 5174 224 0 0.56500000 0.56500000 0.56500000
H 34.42843046 32.22344579 14.76212148 5175 224 0 1.00000000 1.00000000 1.00000000
H 35.64253188 32.34222658 15.99793292 5176 224 0 1.00000000 1.00000000 1.00000000
H 34.04825144 32.98019430 16.30049163 5177 224 0 1.00000000 1.00000000 1.00000000
H 34.91100580 30.02267806 15.84807248 5178 224 0 1.00000000 1.00000000 1.00000000
H 33.16626854 30.54437165 16.30332360 5179 224 0 1.00000000 1.00000000 1.00000000
H 35.55461740 31.03821737 17.88740003 5180 224 0 1.00000000 1.00000000 1.00000000
H 34.75430630 29.60890895 18.28710220 5181 224 0 1.00000000 1.00000000 1.00000000
H 32.75716374 30.70688043 19.17038725 5182 224 0 1.00000000 1.00000000 1.00000000
H 33.34475523 32.40718030 18.60973007 5183 224 0 1.00000000 1.00000000 1.00000000
H 35.15422585 32.38005176 19.89553978 5184 224 0 1.00000000 1.00000000 1.00000000
H 34.76472184 30.98734918 20.88111020 5185 224 0 1.00000000 1.00000000 1.00000000
H 32.45662084 31.95079199 21.14672085 5186 224 0 1.00000000 1.00000000 1.00000000
H 33.04714559 33.48636219 20.68183206 5187 224 0 1.00000000 1.00000000 1.00000000
H 33.27313114 33.35145127 23.24576802 5188 224 0 1.00000000 1.00000000 1.00000000
H 34.77287132 33.53430003 22.49364785 5189 224 0 1.00000000 1.00000000 1.00000000
H 34.30679147 31.93710283 22.98539105 5190 224 0 1.00000000 1.00000000 1.00000000
C 27.20305113 18.13890645 26.05172963 5191 225 0 0.56500000 0.56500000 0.56500000
C 26.50564468 18.67166627 27.29648140 5192 225 0 0.56500000 0.56500000 0.56500000
C 26.20802538 17.53955528 28.25533056 5193 225 0 0.56500000 0.56500000 0.56500000
C 25.13012411 16.49497189 27.95474705 5194 225 0 0.56500000 0.56500000 0.56500000
C 23.70421443 16.90258747 28.01478925 5195 225 0 0.56500000 0.56500000 0.56500000
C 22.71284667 15.73454057 28.20916747 5196 225 0 0.56500000 0.56500000 0.56500000
C 23.03101874 14.81959813 29.34246191 5197 225 0 0.56500000 0.56500000 0.56500000
H 27.63101475 18.97575308 25.43977356 5198 225 0 1.00000000 1.00000000 1.00000000
H 26.56538532 17.44673584 25.48129801 5199 225 0 1.00000000 1.00000000 1.00000000
H 28.06104790 17.58955847 26.44014559 5200 225 0 1.00000000 1.00000000 1.00000000
H 25.54633763 19.09469036 26.93792205 5201 225 0 1.00000000 1.00000000 1.00000000
H 27.04800384 19.52157183 27.74865090 5202 225 0 1.00000000 1.00000000 1.00000000
H 25.86208301 18.11518843 29.11677673 5203 225 0 1.00000000 1.00000000 1.00000000
H 27.13476841 16.93260404 28.50637220 5204 225 0 1.00000000 1.00000000 1.00000000
H 25.32229757 15.65221383 28.62632233 5205 225 0 1.00000000 1.00000000 1.00000000
H 25.26450929 15.96970525 26.91905936 5206 225 0 1.00000000 1.00000000 1.00000000
H 23.39735943 17.43523461 27.11184113 5207 225 0 1.00000000 1.00000000 1.00000000
H 23.60869122 17.64430772 28.81922932 5208 225 0 1.00000000 1.00000000 1.00000000
H 22.76545158 15.14102671 27.28048062 5209 225 0 1.00000000 1.00000000 1.00000000
H 21.69675299 16.16903626 28.24312160 5210 225 0 1.00000000 1.00000000 1.00000000
H 22.18503779 14.16798029 29.57102609 5211 225 0 1.00000000 1.00000000 1.00000000
H 23.21992944 15.30141877 30.26647137 5212 225 0 1.00000000 1.00000000 1.00000000
H 24.00035099 14.21009362 29.23812370 5213 225 0 1.00000000 1.00000000 1.00000000
C 29.27107101 44.54575331 2.91895165 5214 226 0 0.56500000 0.56500000 0.56500000
C 29.04231716 45.15628186 1.47574539 5215 226 0 0.56500000 0.56500000 0.56500000
C 29.56214908 44.34088028 0.26069522 5216 226 0 0.56500000 0.56500000 0.56500000
C 28.38549386 43.56986100 -0.47621515 5217 226 0 0.56500000 0.56500000 0.56500000
C 28.74336795 42.56860123 -1.58417974 5218 226 0 0.56500000 0.56500000 0.56500000
C 29.27381540 41.19295626 -1.05786047 5219 226 0 0.56500000 0.56500000 0.56500000
C 29.66781236 40.16879071 -2.10392066 5220 226 0 0.56500000 0.56500000 0.56500000
H 29.10951897 43.42581070 2.98184797 5221 226 0 1.00000000 1.00000000 1.00000000
H 28.65024910 44.96422093 3.69345265 5222 226 0 1.00000000 1.00000000 1.00000000
H 30.21868571 44.82515028 3.27613067 5223 226 0 1.00000000 1.00000000 1.00000000
H 29.42805282 46.18275703 1.57283128 5224 226 0 1.00000000 1.00000000 1.00000000
H 27.99506734 45.35986139 1.31107431 5225 226 0 1.00000000 1.00000000 1.00000000
H 30.33442568 43.69249983 0.59413361 5226 226 0 1.00000000 1.00000000 1.00000000
H 29.97041069 45.03712111 -0.54821342 5227 226 0 1.00000000 1.00000000 1.00000000
H 27.79929305 44.40927895 -0.94580680 5228 226 0 1.00000000 1.00000000 1.00000000
H 27.74481224 43.10232501 0.27501977 5229 226 0 1.00000000 1.00000000 1.00000000
H 29.39455411 43.00705539 -2.32708046 5230 226 0 1.00000000 1.00000000 1.00000000
H 27.80374673 42.22374894 -2.16709501 5231 226 0 1.00000000 1.00000000 1.00000000
H 28.49635513 40.86950091 -0.35188024 5232 226 0 1.00000000 1.00000000 1.00000000
H 30.15536533 41.22194726 -0.43327191 5233 226 0 1.00000000 1.00000000 1.00000000
H 30.71120292 40.33323373 -2.40714450 5234 226 0 1.00000000 1.00000000 1.00000000
H 29.02400989 40.16473315 -2.95622107 5235 226 0 1.00000000 1.00000000 1.00000000
H 29.64533635 39.11687396 -1.75799094 5236 226 0 1.00000000 1.00000000 1.00000000
C 25.08573182 21.69406051 -3.09713658 5237 227 0 0.56500000 0.56500000 0.56500000
C 24.90717767 21.26969622 -4.58042600 5238 227 0 0.56500000 0.56500000 0.56500000
C 25.62781964 19.95906716 -4.98942551 5239 227 0 0.56500000 0.56500000 0.56500000
C 24.69663718 18.78166088 -5.29321119 5240 227 0 0.56500000 0.56500000 0.56500000
C 25.39724187 17.40168624 -5.60169016 5241 227 0 0.56500000 0.56500000 0.56500000
C 25.76480070 16.59720985 -4.36279633 5242 227 0 0.56500000 0.56500000 0.56500000
C 26.68010196 15.46899622 -4.49712926 5243 227 0 0.56500000 0.56500000 0.56500000
H 24.70917872 21.00280287 -2.42308538 5244 227 0 1.00000000 1.00000000 1.00000000
H 24.73920224 22.70490027 -2.96086933 5245 227 0 1.00000000 1.00000000 1.00000000
H 26.15042291 21.67047644 -2.84579174 5246 227 0 1.00000000 1.00000000 1.00000000
H 25.07156218 22.07962688 -5.24165556 5247 227 0 1.00000000 1.00000000 1.00000000
H 23.91316664 20.99353578 -4.56459634 5248 227 0 1.00000000 1.00000000 1.00000000
H 26.27566464 19.75593345 -4.16176289 5249 227 0 1.00000000 1.00000000 1.00000000
H 26.28167758 20.13206016 -5.88820680 5250 227 0 1.00000000 1.00000000 1.00000000
H 24.04824311 19.03494650 -6.15043337 5251 227 0 1.00000000 1.00000000 1.00000000
H 24.02533517 18.59943104 -4.47269727 5252 227 0 1.00000000 1.00000000 1.00000000
H 26.36776525 17.46458713 -6.25390179 5253 227 0 1.00000000 1.00000000 1.00000000
H 24.61094421 16.84024904 -6.20744401 5254 227 0 1.00000000 1.00000000 1.00000000
H 24.86302223 16.29514812 -3.80133800 5255 227 0 1.00000000 1.00000000 1.00000000
H 26.25012500 17.19534384 -3.58003858 5256 227 0 1.00000000 1.00000000 1.00000000
H 26.32931213 14.58666722 -5.21357858 5257 227 0 1.00000000 1.00000000 1.00000000
H 26.69729281 15.10836604 -3.54227250 5258 227 0 1.00000000 1.00000000 1.00000000
H 27.64639959 15.83524905 -4.85805839 5259 227 0 1.00000000 1.00000000 1.00000000
C 33.70365969 26.30769978 18.76553449 5260 228 0 0.56500000 0.56500000 0.56500000
C 34.46226185 25.03168126 18.33774335 5261 228 0 0.56500000 0.56500000 0.56500000
C 34.94194043 25.19871868 16.86491157 5262 228 0 0.56500000 0.56500000 0.56500000
C 35.93666787 24.17951304 16.36334571 5263 228 0 0.56500000 0.56500000 0.56500000
C 35.55397797 22.69039926 16.53008987 5264 228 0 0.56500000 0.56500000 0.56500000
C 34.10272653 22.30381856 16.12076300 5265 228 0 0.56500000 0.56500000 0.56500000
C 33.88840475 22.32536272 14.58338699 5266 228 0 0.56500000 0.56500000 0.56500000
H 34.43345777 27.13796815 18.86714422 5267 228 0 1.00000000 1.00000000 1.00000000
H 33.11217074 26.13318359 19.70570718 5268 228 0 1.00000000 1.00000000 1.00000000
H 32.91792757 26.70022223 18.04722767 5269 228 0 1.00000000 1.00000000 1.00000000
H 33.81507338 24.11175466 18.46910042 5270 228 0 1.00000000 1.00000000 1.00000000
H 35.32487585 24.87569228 19.00951540 5271 228 0 1.00000000 1.00000000 1.00000000
H 35.32582056 26.24291809 16.75597531 5272 228 0 1.00000000 1.00000000 1.00000000
H 34.04157735 25.23503582 16.26755529 5273 228 0 1.00000000 1.00000000 1.00000000
H 36.90244506 24.30073777 16.86620005 5274 228 0 1.00000000 1.00000000 1.00000000
H 35.99932057 24.39060713 15.27178414 5275 228 0 1.00000000 1.00000000 1.00000000
H 35.79930745 22.52258849 17.56323693 5276 228 0 1.00000000 1.00000000 1.00000000
H 36.32223688 22.07604463 15.96974979 5277 228 0 1.00000000 1.00000000 1.00000000
H 33.37841746 22.93330269 16.62230404 5278 228 0 1.00000000 1.00000000 1.00000000
H 33.86835514 21.33686947 16.46176417 5279 228 0 1.00000000 1.00000000 1.00000000
H 34.63484086 21.84892208 14.01136451 5280 228 0 1.00000000 1.00000000 1.00000000
H 33.71414254 23.37859927 14.19613587 5281 228 0 1.00000000 1.00000000 1.00000000
H 32.91129024 21.79138966 14.43339313 5282 228 0 1.00000000 1.00000000 1.00000000
C 15.61559286 42.44606734 20.88356012 5283 229 0 0.56500000 0.56500000 0.56500000
C 15.86403136 43.83772829 21.45690329 5284 229 0 0.56500000 0.56500000 0.56500000
C 17.30999726 44.09750083 21.71476074 5285 229 0 0.56500000 0.56500000 0.56500000
C 18.20996847 44.51460083 20.44348455 5286 229 0 0.56500000 0.56500000 0.56500000
C 19.71470927 44.58773914 20.63602954 5287 229 0 0.56500000 0.56500000 0.56500000
C 20.40145605 45.09304581 19.35873529 5288 229 0 0.56500000 0.56500000 0.56500000
C 20.37036927 46.70318550 19.24038737 5289 229 0 0.56500000 0.56500000 0.56500000
H 14.75226418 42.31139088 20.18280831 5290 229 0 1.00000000 1.00000000 1.00000000
H 15.58201785 41.68211325 21.65199365 5291 229 0 1.00000000 1.00000000 1.00000000
H 16.42888971 42.16686173 20.19174733 5292 229 0 1.00000000 1.00000000 1.00000000
H 15.29783821 44.03587042 22.40708124 5293 229 0 1.00000000 1.00000000 1.00000000
H 15.60935724 44.57156460 20.71678202 5294 229 0 1.00000000 1.00000000 1.00000000
H 17.81920524 43.28474622 22.13371737 5295 229 0 1.00000000 1.00000000 1.00000000
H 17.43017707 44.88908678 22.46177374 5296 229 0 1.00000000 1.00000000 1.00000000
H 17.80197994 45.49584818 20.21021948 5297 229 0 1.00000000 1.00000000 1.00000000
H 17.94737632 43.85116339 19.51216909 5298 229 0 1.00000000 1.00000000 1.00000000
H 20.21489142 43.61703530 20.86900568 5299 229 0 1.00000000 1.00000000 1.00000000
H 19.96293989 45.26063976 21.48674660 5300 229 0 1.00000000 1.00000000 1.00000000
H 20.14543797 44.51645223 18.47686451 5301 229 0 1.00000000 1.00000000 1.00000000
H 21.43997381 44.85638046 19.41106303 5302 229 0 1.00000000 1.00000000 1.00000000
H 19.40019595 47.19577559 19.21103797 5303 229 0 1.00000000 1.00000000 1.00000000
H 21.02210711 46.91241042 18.35089529 5304 229 0 1.00000000 1.00000000 1.00000000
H 20.84292484 47.06951367 20.11663421 5305 229 0 1.00000000 1.00000000 1.00000000
C 45.44297565 8.49015010 29.14227209 5306 230 0 0.56500000 0.56500000 0.56500000
C 45.99506137 7.94344455 30.44767658 5307 230 0 0.56500000 0.56500000 0.56500000
C 47.41147963 8.44638939 30.88616423 5308 230 0 0.56500000 0.56500000 0.56500000
C 48.54270726 7.71492234 30.14025159 5309 230 0 0.56500000 0.56500000 0.56500000
C 49.89342243 8.21442759 30.62193965 5310 230 0 0.56500000 0.56500000 0.56500000
C 50.97219485 7.12085914 30.53713430 5311 230 0 0.56500000 0.56500000 0.56500000
C 52.29763876 7.64264169 31.13828767 5312 230 0 0.56500000 0.56500000 0.56500000
H 45.12457804 9.52988564 29.19157584 5313 230 0 1.00000000 1.00000000 1.00000000
H 44.54589429 8.00510364 28.83212911 5314 230 0 1.00000000 1.00000000 1.00000000
H 46.24092464 8.43496401 28.38621311 5315 230 0 1.00000000 1.00000000 1.00000000
H 46.08094882 6.83198371 30.32161480 5316 230 0 1.00000000 1.00000000 1.00000000
H 45.33178898 8.01420641 31.31048115 5317 230 0 1.00000000 1.00000000 1.00000000
H 47.57065575 8.47174262 31.93904595 5318 230 0 1.00000000 1.00000000 1.00000000
H 47.47070044 9.47727077 30.68720137 5319 230 0 1.00000000 1.00000000 1.00000000
H 48.48965749 7.70783875 29.04819889 5320 230 0 1.00000000 1.00000000 1.00000000
H 48.59285312 6.57859480 30.29262603 5321 230 0 1.00000000 1.00000000 1.00000000
H 49.69011540 8.42227464 31.71568147 5322 230 0 1.00000000 1.00000000 1.00000000
H 50.17555974 9.28178732 30.22738683 5323 230 0 1.00000000 1.00000000 1.00000000
H 51.24056165 6.84833441 29.50232124 5324 230 0 1.00000000 1.00000000 1.00000000
H 50.74142691 6.12053868 31.02084256 5325 230 0 1.00000000 1.00000000 1.00000000
H 53.17685159 6.78823544 31.12226677 5326 230 0 1.00000000 1.00000000 1.00000000
H 52.13391048 8.06316659 32.12992805 5327 230 0 1.00000000 1.00000000 1.00000000
H 52.46282976 8.40901345 30.46187265 5328 230 0 1.00000000 1.00000000 1.00000000
C 26.36141754 47.87742241 33.24855262 5329 231 0 0.56500000 0.56500000 0.56500000
C 27.58287325 48.64880919 32.76877555 5330 231 0 0.56500000 0.56500000 0.56500000
C 28.76415418 48.42669116 33.77928041 5331 231 0 0.56500000 0.56500000 0.56500000
C 30.06009864 49.08168340 33.33746365 5332 231 0 0.56500000 0.56500000 0.56500000
C 29.88988074 50.64754578 33.36356877 5333 231 0 0.56500000 0.56500000 0.56500000
C 29.88694290 51.29390281 34.78051439 5334 231 0 0.56500000 0.56500000 0.56500000
C 30.72614376 50.49857089 35.72332639 5335 231 0 0.56500000 0.56500000 0.56500000
H 25.49897942 48.14659615 32.64167167 5336 231 0 1.00000000 1.00000000 1.00000000
H 26.28590820 48.04924234 34.36160628 5337 231 0 1.00000000 1.00000000 1.00000000
H 26.59406274 46.80647015 33.22147286 5338 231 0 1.00000000 1.00000000 1.00000000
H 27.40539665 49.75717034 32.61819484 5339 231 0 1.00000000 1.00000000 1.00000000
H 27.83334269 48.19261513 31.74563901 5340 231 0 1.00000000 1.00000000 1.00000000
H 29.00777347 47.31482313 34.00018716 5341 231 0 1.00000000 1.00000000 1.00000000
H 28.46750762 48.90431835 34.73859458 5342 231 0 1.00000000 1.00000000 1.00000000
H 30.34344588 48.68354665 32.33182758 5343 231 0 1.00000000 1.00000000 1.00000000
H 30.89331184 48.77645234 33.99241963 5344 231 0 1.00000000 1.00000000 1.00000000
H 28.83631028 50.72742973 32.91376756 5345 231 0 1.00000000 1.00000000 1.00000000
H 30.66637694 51.06548572 32.75466861 5346 231 0 1.00000000 1.00000000 1.00000000
H 28.86245303 51.19431810 35.23777873 5347 231 0 1.00000000 1.00000000 1.00000000
H 30.17276775 52.30513771 34.81273383 5348 231 0 1.00000000 1.00000000 1.00000000
H 30.54894095 49.41470935 35.89198337 5349 231 0 1.00000000 1.00000000 1.00000000
H 30.67753663 50.99874565 36.66717513 5350 231 0 1.00000000 1.00000000 1.00000000
H 31.84859177 50.48469102 35.44036334 5351 231 0 1.00000000 1.00000000 1.00000000
C 39.90560155 53.11137439 35.51096559 5352 232 0 0.56500000 0.56500000 0.56500000
C 39.64972442 52.61558487 34.17145499 5353 232 0 0.56500000 0.56500000 0.56500000
C 38.64838264 51.43802791 34.07495590 5354 232 0 0.56500000 0.56500000 0.56500000
C 39.08814596 50.17669705 34.66791030 5355 232 0 0.56500000 0.56500000 0.56500000
C 40.48360558 49.70941036 34.12505994 5356 232 0 0.56500000 0.56500000 0.56500000
C 40.59069464 48.18570303 34.37201549 5357 232 0 0.56500000 0.56500000 0.56500000
C 40.40795686 47.83706353 35.82025353 5358 232 0 0.56500000 0.56500000 0.56500000
H 40.71999322 53.81784922 35.49825319 5359 232 0 1.00000000 1.00000000 1.00000000
H 40.15976016 52.24704318 36.14235477 5360 232 0 1.00000000 1.00000000 1.00000000
H 38.99119761 53.47250800 35.94468014 5361 232 0 1.00000000 1.00000000 1.00000000
H 40.57940581 52.25805754 33.72186100 5362 232 0 1.00000000 1.00000000 1.00000000
H 39.34395313 53.32217898 33.40966512 5363 232 0 1.00000000 1.00000000 1.00000000
H 38.48489847 51.34870776 32.96868074 5364 232 0 1.00000000 1.00000000 1.00000000
H 37.71631261 51.77447613 34.58664210 5365 232 0 1.00000000 1.00000000 1.00000000
H 38.41945405 49.37010333 34.46235959 5366 232 0 1.00000000 1.00000000 1.00000000
H 39.08785450 50.26076382 35.72032963 5367 232 0 1.00000000 1.00000000 1.00000000
H 41.28147048 50.22130525 34.65838806 5368 232 0 1.00000000 1.00000000 1.00000000
H 40.47704517 49.97124594 33.04842860 5369 232 0 1.00000000 1.00000000 1.00000000
H 41.54790128 47.73895369 34.00594775 5370 232 0 1.00000000 1.00000000 1.00000000
H 39.77230619 47.79272394 33.80333043 5371 232 0 1.00000000 1.00000000 1.00000000
H 39.46028078 48.11835809 36.25392217 5372 232 0 1.00000000 1.00000000 1.00000000
H 41.19513932 48.23538191 36.43404829 5373 232 0 1.00000000 1.00000000 1.00000000
H 40.52222217 46.75969022 35.93294377 5374 232 0 1.00000000 1.00000000 1.00000000
C 23.64806151 21.50703846 40.05205382 5375 233 0 0.56500000 0.56500000 0.56500000
C 22.77863032 22.00602115 38.90407255 5376 233 0 0.56500000 0.56500000 0.56500000
C 21.83933949 23.11315607 39.30745918 5377 233 0 0.56500000 0.56500000 0.56500000
C 21.14186758 23.78585540 38.13928865 5378 233 0 0.56500000 0.56500000 0.56500000
C 20.51031441 25.19377513 38.41630795 5379 233 0 0.56500000 0.56500000 0.56500000
C 19.69030325 25.81182079 37.30700641 5380 233 0 0.56500000 0.56500000 0.56500000
C 19.00016878 27.11178873 37.71464081 5381 233 0 0.56500000 0.56500000 0.56500000
H 24.66698754 21.97899436 40.15316835 5382 233 0 1.00000000 1.00000000 1.00000000
H 23.95172180 20.43056921 39.95171348 5383 233 0 1.00000000 1.00000000 1.00000000
H 23.02811165 21.70499706 40.88387455 5384 233 0 1.00000000 1.00000000 1.00000000
H 22.07474694 21.20861540 38.52715733 5385 233 0 1.00000000 1.00000000 1.00000000
H 23.33489827 22.30215714 37.94515413 5386 233 0 1.00000000 1.00000000 1.00000000
H 22.43734095 23.94730096 39.81069463 5387 233 0 1.00000000 1.00000000 1.00000000
H 21.05451413 22.73394378 40.00958027 5388 233 0 1.00000000 1.00000000 1.00000000
H 20.38196834 23.16054878 37.64054244 5389 233 0 1.00000000 1.00000000 1.00000000
H 21.94609481 23.82588328 37.33664430 5390 233 0 1.00000000 1.00000000 1.00000000
H 21.33597402 25.93134223 38.63375831 5391 233 0 1.00000000 1.00000000 1.00000000
H 19.90575530 25.12871986 39.29698825 5392 233 0 1.00000000 1.00000000 1.00000000
H 18.82378814 25.21413133 36.97833819 5393 233 0 1.00000000 1.00000000 1.00000000
H 20.26377360 26.02379938 36.35701910 5394 233 0 1.00000000 1.00000000 1.00000000
H 18.39547547 26.89878207 38.59291980 5395 233 0 1.00000000 1.00000000 1.00000000
H 18.31312945 27.36006738 36.95709859 5396 233 0 1.00000000 1.00000000 1.00000000
H 19.70652796 27.91030942 38.00847833 5397 233 0 1.00000000 1.00000000 1.00000000
C 33.16435951 38.07929267 -2.53629857 5398 234 0 0.56500000 0.56500000 0.56500000
C 33.01150726 37.44179608 -3.97172738 5399 234 0 0.56500000 0.56500000 0.56500000
C 31.80779219 38.00080991 -4.81426464 5400 234 0 0.56500000 0.56500000 0.56500000
C 32.11690069 39.31053255 -5.62269737 5401 234 0 0.56500000 0.56500000 0.56500000
C 30.96258553 39.76010186 -6.50613526 5402 234 0 0.56500000 0.56500000 0.56500000
C 31.13380262 40.95848723 -7.43538083 5403 234 0 0.56500000 0.56500000 0.56500000
C 31.45188333 42.12231395 -6.52683988 5404 234 0 0.56500000 0.56500000 0.56500000
H 32.23946304 38.02527888 -1.95169139 5405 234 0 1.00000000 1.00000000 1.00000000
H 33.53013843 39.16722784 -2.55168553 5406 234 0 1.00000000 1.00000000 1.00000000
H 33.96413347 37.53106572 -2.00344038 5407 234 0 1.00000000 1.00000000 1.00000000
H 32.72045137 36.41544171 -3.92985932 5408 234 0 1.00000000 1.00000000 1.00000000
H 33.88842147 37.55542746 -4.60821664 5409 234 0 1.00000000 1.00000000 1.00000000
H 30.98440653 38.21392305 -4.12451478 5410 234 0 1.00000000 1.00000000 1.00000000
H 31.45348552 37.24955047 -5.50379088 5411 234 0 1.00000000 1.00000000 1.00000000
H 32.95438298 39.11166103 -6.31123526 5412 234 0 1.00000000 1.00000000 1.00000000
H 32.47754506 40.07162154 -4.88279320 5413 234 0 1.00000000 1.00000000 1.00000000
H 30.04795718 40.07440277 -5.87977592 5414 234 0 1.00000000 1.00000000 1.00000000
H 30.58590653 38.92764356 -7.16164913 5415 234 0 1.00000000 1.00000000 1.00000000
H 30.22699554 41.16937808 -8.00582381 5416 234 0 1.00000000 1.00000000 1.00000000
H 31.97239432 40.83441525 -8.20946902 5417 234 0 1.00000000 1.00000000 1.00000000
H 32.53503675 42.01762203 -6.17615162 5418 234 0 1.00000000 1.00000000 1.00000000
H 30.82960883 42.17618913 -5.59013810 5419 234 0 1.00000000 1.00000000 1.00000000
H 31.42050207 43.13702467 -6.99465476 5420 234 0 1.00000000 1.00000000 1.00000000
C 1.00832853 36.54155766 17.95473500 5421 235 0 0.56500000 0.56500000 0.56500000
C 0.42002943 35.85797681 19.15812105 5422 235 0 0.56500000 0.56500000 0.56500000
C 1.20300489 34.68948295 19.85132122 5423 235 0 0.56500000 0.56500000 0.56500000
C 1.36556956 33.56878856 18.92722328 5424 235 0 0.56500000 0.56500000 0.56500000
C 1.99946367 32.35904589 19.56732095 5425 235 0 0.56500000 0.56500000 0.56500000
C 2.15198270 31.18641088 18.55294182 5426 235 0 0.56500000 0.56500000 0.56500000
C 3.35225039 31.40425618 17.66233640 5427 235 0 0.56500000 0.56500000 0.56500000
H 1.44665791 35.82558049 17.20164165 5428 235 0 1.00000000 1.00000000 1.00000000
H 1.84273789 37.24319216 18.13460430 5429 235 0 1.00000000 1.00000000 1.00000000
H 0.33264196 37.16801102 17.35270099 5430 235 0 1.00000000 1.00000000 1.00000000
H -0.57726208 35.48672765 18.86235500 5431 235 0 1.00000000 1.00000000 1.00000000
H 0.31793669 36.54901835 19.99074024 5432 235 0 1.00000000 1.00000000 1.00000000
H 0.68857746 34.44508145 20.78248392 5433 235 0 1.00000000 1.00000000 1.00000000
H 2.20589713 35.05657613 20.07649638 5434 235 0 1.00000000 1.00000000 1.00000000
H 1.89304720 33.92319851 17.97622737 5435 235 0 1.00000000 1.00000000 1.00000000
H 0.31271130 33.17916103 18.64470979 5436 235 0 1.00000000 1.00000000 1.00000000
H 1.50276117 31.99313294 20.46987381 5437 235 0 1.00000000 1.00000000 1.00000000
H 2.99293544 32.61161321 19.88247147 5438 235 0 1.00000000 1.00000000 1.00000000
H 1.24558492 31.20894490 17.93738505 5439 235 0 1.00000000 1.00000000 1.00000000
H 2.16815545 30.19052361 19.08613783 5440 235 0 1.00000000 1.00000000 1.00000000
H 3.50192036 30.60833095 16.99919894 5441 235 0 1.00000000 1.00000000 1.00000000
H 4.28954543 31.54650117 18.19785555 5442 235 0 1.00000000 1.00000000 1.00000000
H 3.14453096 32.33311684 17.04701700 5443 235 0 1.00000000 1.00000000 1.00000000
C 33.69168637 7.64547280 -5.59392541 5444 236 0 0.56500000 0.56500000 0.56500000
C 33.92981030 9.15290060 -5.88003029 5445 236 0 0.56500000 0.56500000 0.56500000
C 32.67677101 10.00663855 -5.74278737 5446 236 0 0.56500000 0.56500000 0.56500000
C 32.68777046 11.52392636 -5.82186609 5447 236 0 0.56500000 0.56500000 0.56500000
C 31.54909150 12.24993787 -5.07093363 5448 236 0 0.56500000 0.56500000 0.56500000
C 30.17597798 12.13392880 -5.71634957 5449 236 0 0.56500000 0.56500000 0.56500000
C 29.16256610 13.16306710 -5.12957365 5450 236 0 0.56500000 0.56500000 0.56500000
H 32.77190054 7.42363567 -5.05872729 5451 236 0 1.00000000 1.00000000 1.00000000
H 34.60836040 7.17344760 -5.25665667 5452 236 0 1.00000000 1.00000000 1.00000000
H 33.48397019 7.07849402 -6.47797359 5453 236 0 1.00000000 1.00000000 1.00000000
H 34.48964658 9.22578419 -6.78602902 5454 236 0 1.00000000 1.00000000 1.00000000
H 34.65939722 9.55190982 -5.15161539 5455 236 0 1.00000000 1.00000000 1.00000000
H 32.35791570 9.66323562 -4.68203074 5456 236 0 1.00000000 1.00000000 1.00000000
H 31.90479299 9.63578339 -6.44591299 5457 236 0 1.00000000 1.00000000 1.00000000
H 32.72987249 11.79332541 -6.88080291 5458 236 0 1.00000000 1.00000000 1.00000000
H 33.59748912 11.98503485 -5.44622519 5459 236 0 1.00000000 1.00000000 1.00000000
H 31.83082048 13.29371263 -4.83735231 5460 236 0 1.00000000 1.00000000 1.00000000
H 31.55192942 11.81211980 -4.10961569 5461 236 0 1.00000000 1.00000000 1.00000000
H 29.70081618 11.17147931 -5.58461115 5462 236 0 1.00000000 1.00000000 1.00000000
H 30.25767643 12.28449858 -6.83287187 5463 236 0 1.00000000 1.00000000 1.00000000
H 29.40251339 14.14840949 -5.49435613 5464 236 0 1.00000000 1.00000000 1.00000000
H 29.09900196 13.31801408 -4.08475653 5465 236 0 1.00000000 1.00000000 1.00000000
H 28.14336604 12.99993161 -5.54238466 5466 236 0 1.00000000 1.00000000 1.00000000
C 2.55422433 36.74591893 22.63242266 5467 237 0 0.56500000 0.56500000 0.56500000
C 3.41201643 35.58625848 23.01266290 5468 237 0 0.56500000 0.56500000 0.56500000
C 4.85837713 35.63832530 22.45870499 5469 237 0 0.56500000 0.56500000 0.56500000
C 5.04877577 35.25730895 21.06272770 5470 237 0 0.56500000 0.56500000 0.56500000
C 6.56524660 34.99501828 20.66941257 5471 237 0 0.56500000 0.56500000 0.56500000
C 6.68099196 34.78727862 19.15269822 5472 237 0 0.56500000 0.56500000 0.56500000
C 5.91043603 33.59733254 18.65350412 5473 237 0 0.56500000 0.56500000 0.56500000
H 2.55173515 36.78071201 21.56477895 5474 237 0 1.00000000 1.00000000 1.00000000
H 2.82932850 37.63163044 23.13247358 5475 237 0 1.00000000 1.00000000 1.00000000
H 1.54390796 36.44533529 22.78686649 5476 237 0 1.00000000 1.00000000 1.00000000
H 2.93485719 34.60630544 22.66322392 5477 237 0 1.00000000 1.00000000 1.00000000
H 3.31249792 35.43756469 24.10463281 5478 237 0 1.00000000 1.00000000 1.00000000
H 5.44291857 34.92648207 23.09220873 5479 237 0 1.00000000 1.00000000 1.00000000
H 5.36952761 36.52966566 22.67506550 5480 237 0 1.00000000 1.00000000 1.00000000
H 4.63276527 35.96511676 20.33649951 5481 237 0 1.00000000 1.00000000 1.00000000
H 4.41953236 34.38054900 20.84814827 5482 237 0 1.00000000 1.00000000 1.00000000
H 6.93625897 34.16932875 21.21621062 5483 237 0 1.00000000 1.00000000 1.00000000
H 7.20245259 35.91645993 20.94015129 5484 237 0 1.00000000 1.00000000 1.00000000
H 7.70301055 34.82154357 18.86222154 5485 237 0 1.00000000 1.00000000 1.00000000
H 6.29357942 35.80973554 18.65938733 5486 237 0 1.00000000 1.00000000 1.00000000
H 6.41417222 33.20770536 17.73406246 5487 237 0 1.00000000 1.00000000 1.00000000
H 4.86664007 33.83166263 18.44599981 5488 237 0 1.00000000 1.00000000 1.00000000
H 5.95801670 32.73658665 19.37712706 5489 237 0 1.00000000 1.00000000 1.00000000
C 40.79117495 48.38698624 21.95696882 5490 238 0 0.56500000 0.56500000 0.56500000
C 41.42894833 49.23722286 20.78926806 5491 238 0 0.56500000 0.56500000 0.56500000
C 41.60893121 48.34830692 19.57613264 5492 238 0 0.56500000 0.56500000 0.56500000
C 41.97532942 49.11387953 18.26956927 5493 238 0 0.56500000 0.56500000 0.56500000
C 42.68058101 48.12662920 17.34265514 5494 238 0 0.56500000 0.56500000 0.56500000
C 42.94133396 48.64737958 15.95111787 5495 238 0 0.56500000 0.56500000 0.56500000
C 43.47765767 47.54062903 15.02459654 5496 238 0 0.56500000 0.56500000 0.56500000
H 39.84041730 48.00444403 21.57296841 5497 238 0 1.00000000 1.00000000 1.00000000
H 40.53414436 48.97475745 22.78945100 5498 238 0 1.00000000 1.00000000 1.00000000
H 41.43271478 47.51993439 22.21805969 5499 238 0 1.00000000 1.00000000 1.00000000
H 42.41978830 49.55457473 21.18306969 5500 238 0 1.00000000 1.00000000 1.00000000
H 40.83063003 50.12832047 20.63930085 5501 238 0 1.00000000 1.00000000 1.00000000
H 40.73463274 47.66851834 19.31147477 5502 238 0 1.00000000 1.00000000 1.00000000
H 42.41316901 47.55921262 19.71975434 5503 238 0 1.00000000 1.00000000 1.00000000
H 42.64193277 49.91841723 18.49865914 5504 238 0 1.00000000 1.00000000 1.00000000
H 41.02880085 49.44226204 17.84262438 5505 238 0 1.00000000 1.00000000 1.00000000
H 42.05242863 47.27213854 17.13702015 5506 238 0 1.00000000 1.00000000 1.00000000
H 43.63479119 47.80221350 17.88361289 5507 238 0 1.00000000 1.00000000 1.00000000
H 43.63884252 49.49223863 16.03083840 5508 238 0 1.00000000 1.00000000 1.00000000
H 42.02315006 49.04318588 15.52007674 5509 238 0 1.00000000 1.00000000 1.00000000
H 42.65729752 46.97017116 14.56783117 5510 238 0 1.00000000 1.00000000 1.00000000
H 44.18834594 46.84459025 15.40237526 5511 238 0 1.00000000 1.00000000 1.00000000
H 43.94660566 48.00403207 14.20522479 5512 238 0 1.00000000 1.00000000 1.00000000
C 22.52406780 2.57145216 10.92793497 5513 239 0 0.56500000 0.56500000 0.56500000
C 23.79442817 2.30454121 11.62556600 5514 239 0 0.56500000 0.56500000 0.56500000
C 23.94485170 3.39375245 12.65669851 5515 239 0 0.56500000 0.56500000 0.56500000
C 25.29441504 3.31631140 13.42520449 5516 239 0 0.56500000 0.56500000 0.56500000
C 25.25282619 4.45232691 14.51548777 5517 239 0 0.56500000 0.56500000 0.56500000
C 26.13989334 4.38303381 15.74545324 5518 239 0 0.56500000 0.56500000 0.56500000
C 26.04372220 5.49140378 16.69549687 5519 239 0 0.56500000 0.56500000 0.56500000
H 22.52863813 3.48058899 10.30624287 5520 239 0 1.00000000 1.00000000 1.00000000
H 21.77684368 2.69264911 11.64809722 5521 239 0 1.00000000 1.00000000 1.00000000
H 22.21139042 1.77188466 10.25938545 5522 239 0 1.00000000 1.00000000 1.00000000
H 24.62515061 2.30397572 10.92316815 5523 239 0 1.00000000 1.00000000 1.00000000
H 23.78396160 1.29755851 12.13411458 5524 239 0 1.00000000 1.00000000 1.00000000
H 23.13152546 3.35260512 13.47980642 5525 239 0 1.00000000 1.00000000 1.00000000
H 23.88510062 4.33893070 12.10280375 5526 239 0 1.00000000 1.00000000 1.00000000
H 26.06100275 3.42648292 12.64975178 5527 239 0 1.00000000 1.00000000 1.00000000
H 25.40831846 2.28884918 13.80672564 5528 239 0 1.00000000 1.00000000 1.00000000
H 24.24788775 4.40026946 14.82209311 5529 239 0 1.00000000 1.00000000 1.00000000
H 25.32311247 5.44263791 14.07913410 5530 239 0 1.00000000 1.00000000 1.00000000
H 27.17444475 4.19476293 15.44845374 5531 239 0 1.00000000 1.00000000 1.00000000
H 26.00293776 3.42888928 16.33132141 5532 239 0 1.00000000 1.00000000 1.00000000
H 26.45435568 6.44579885 16.30818718 5533 239 0 1.00000000 1.00000000 1.00000000
H 26.59894104 5.16837926 17.60526815 5534 239 0 1.00000000 1.00000000 1.00000000
H 25.06008634 5.62580592 17.06117584 5535 239 0 1.00000000 1.00000000 1.00000000
C 15.64996703 9.56075668 38.69140690 5536 240 0 0.56500000 0.56500000 0.56500000
C 16.25083673 10.48447908 37.61128251 5537 240 0 0.56500000 0.56500000 0.56500000
C 15.22186592 11.42479677 37.01847353 5538 240 0 0.56500000 0.56500000 0.56500000
C 14.05236856 10.82822009 36.26043522 5539 240 0 0.56500000 0.56500000 0.56500000
C 14.15030173 11.04542625 34.82363838 5540 240 0 0.56500000 0.56500000 0.56500000
C 15.34509481 10.34237447 34.07089724 5541 240 0 0.56500000 0.56500000 0.56500000
C 15.02102222 10.35721044 32.61274554 5542 240 0 0.56500000 0.56500000 0.56500000
H 14.95849461 8.77329101 38.34026751 5543 240 0 1.00000000 1.00000000 1.00000000
H 15.14980488 10.10201052 39.42014807 5544 240 0 1.00000000 1.00000000 1.00000000
H 16.45664885 9.09760875 39.21706890 5545 240 0 1.00000000 1.00000000 1.00000000
H 16.71490278 9.82344809 36.82433065 5546 240 0 1.00000000 1.00000000 1.00000000
H 17.10012262 11.06011881 38.03878447 5547 240 0 1.00000000 1.00000000 1.00000000
H 15.68041860 12.15109656 36.39566209 5548 240 0 1.00000000 1.00000000 1.00000000
H 14.89547003 12.03694263 37.83305583 5549 240 0 1.00000000 1.00000000 1.00000000
H 13.12054601 11.25707522 36.56520939 5550 240 0 1.00000000 1.00000000 1.00000000
H 13.98431825 9.76258687 36.41248650 5551 240 0 1.00000000 1.00000000 1.00000000
H 14.18077209 12.14243499 34.64064234 5552 240 0 1.00000000 1.00000000 1.00000000
H 13.18240829 10.63898552 34.49253766 5553 240 0 1.00000000 1.00000000 1.00000000
H 15.35729118 9.30990117 34.36578632 5554 240 0 1.00000000 1.00000000 1.00000000
H 16.33005425 10.78377396 34.34155151 5555 240 0 1.00000000 1.00000000 1.00000000
H 14.08258255 9.82745326 32.38521711 5556 240 0 1.00000000 1.00000000 1.00000000
H 15.83925475 10.04511066 31.95298814 5557 240 0 1.00000000 1.00000000 1.00000000
H 14.83947006 11.38034933 32.29066124 5558 240 0 1.00000000 1.00000000 1.00000000
C 19.71771164 11.14028695 20.18608685 5559 241 0 0.56500000 0.56500000 0.56500000
C 20.19236817 12.29881349 21.10333112 5560 241 0 0.56500000 0.56500000 0.56500000
C 19.54414258 12.31531627 22.45450704 5561 241 0 0.56500000 0.56500000 0.56500000
C 20.25403104 13.08457239 23.55675417 5562 241 0 0.56500000 0.56500000 0.56500000
C 19.60513388 13.12964684 24.96079341 5563 241 0 0.56500000 0.56500000 0.56500000
C 20.67705213 13.65052110 25.90760946 5564 241 0 0.56500000 0.56500000 0.56500000
C 20.38731135 13.58294761 27.43017318 5565 241 0 0.56500000 0.56500000 0.56500000
H 19.87043461 10.16386550 20.67068025 5566 241 0 1.00000000 1.00000000 1.00000000
H 20.16498097 11.11423665 19.18853824 5567 241 0 1.00000000 1.00000000 1.00000000
H 18.64186336 11.13458938 20.05246342 5568 241 0 1.00000000 1.00000000 1.00000000
H 20.13995655 13.34567860 20.62375410 5569 241 0 1.00000000 1.00000000 1.00000000
H 21.24811886 12.15253482 21.41755838 5570 241 0 1.00000000 1.00000000 1.00000000
H 19.23555876 11.32067036 22.92510347 5571 241 0 1.00000000 1.00000000 1.00000000
H 18.54613885 12.70650616 22.34824009 5572 241 0 1.00000000 1.00000000 1.00000000
H 20.41163037 14.10836124 23.25149766 5573 241 0 1.00000000 1.00000000 1.00000000
H 21.30641914 12.72903695 23.67308659 5574 241 0 1.00000000 1.00000000 1.00000000
H 19.28345115 12.09728563 25.27642848 5575 241 0 1.00000000 1.00000000 1.00000000
H 18.72300493 13.76075904 25.00049909 5576 241 0 1.00000000 1.00000000 1.00000000
H 20.86086209 14.71892496 25.54531391 5577 241 0 1.00000000 1.00000000 1.00000000
H 21.60824957 13.15669857 25.65353824 5578 241 0 1.00000000 1.00000000 1.00000000
H 19.63115980 14.35963020 27.66405545 5579 241 0 1.00000000 1.00000000 1.00000000
H 21.30012700 13.77805959 28.01673157 5580 241 0 1.00000000 1.00000000 1.00000000
H 19.93979970 12.61694579 27.69634453 5581 241 0 1.00000000 1.00000000 1.00000000
C 42.23032493 11.29088639 23.34037985 5582 242 0 0.56500000 0.56500000 0.56500000
C 43.35191720 10.31425592 23.46283449 5583 242 0 0.56500000 0.56500000 0.56500000
C 43.40087663 9.54020660 24.96019567 5584 242 0 0.56500000 0.56500000 0.56500000
C 44.15831418 8.23055731 24.84258865 5585 242 0 0.56500000 0.56500000 0.56500000
C 43.33793755 7.32120065 23.99776235 5586 242 0 0.56500000 0.56500000 0.56500000
C 44.10948521 6.19187238 23.37702628 5587 242 0 0.56500000 0.56500000 0.56500000
C 43.21512998 5.31311748 22.50148660 5588 242 0 0.56500000 0.56500000 0.56500000
H 42.22715359 12.00656870 24.23148279 5589 242 0 1.00000000 1.00000000 1.00000000
H 41.13465352 10.91023430 23.35040045 5590 242 0 1.00000000 1.00000000 1.00000000
H 42.22672128 11.96753234 22.49635925 5591 242 0 1.00000000 1.00000000 1.00000000
H 44.27699886 10.94451438 23.28570186 5592 242 0 1.00000000 1.00000000 1.00000000
H 43.38543897 9.59594291 22.69314782 5593 242 0 1.00000000 1.00000000 1.00000000
H 42.33069027 9.44648660 25.27343027 5594 242 0 1.00000000 1.00000000 1.00000000
H 43.88914632 10.21065240 25.63101435 5595 242 0 1.00000000 1.00000000 1.00000000
H 44.35735303 7.82965997 25.81198391 5596 242 0 1.00000000 1.00000000 1.00000000
H 45.05028404 8.52649621 24.32098541 5597 242 0 1.00000000 1.00000000 1.00000000
H 42.84107201 7.82933792 23.13303584 5598 242 0 1.00000000 1.00000000 1.00000000
H 42.48721941 6.98415210 24.59919053 5599 242 0 1.00000000 1.00000000 1.00000000
H 44.50170797 5.58361455 24.14351032 5600 242 0 1.00000000 1.00000000 1.00000000
H 44.94698228 6.58216294 22.77702128 5601 242 0 1.00000000 1.00000000 1.00000000
H 43.71146814 4.38805606 22.23387115 5602 242 0 1.00000000 1.00000000 1.00000000
H 42.91396863 5.85042843 21.67778770 5603 242 0 1.00000000 1.00000000 1.00000000
H 42.40800790 4.96572466 23.07753495 5604 242 0 1.00000000 1.00000000 1.00000000
C 38.65027159 11.64004459 14.37350026 5605 243 0 0.56500000 0.56500000 0.56500000
C 37.71098752 10.92903557 13.32634689 5606 243 0 0.56500000 0.56500000 0.56500000
C 38.40875726 10.28505825 12.15709897 5607 243 0 0.56500000 0.56500000 0.56500000
C 37.49786983 9.74031578 11.05238118 5608 243 0 0.56500000 0.56500000 0.56500000
C 38.15582364 9.05610962 9.89106269 5609 243 0 0.56500000 0.56500000 0.56500000
C 37.15794150 8.35669622 9.03822258 5610 243 0 0.56500000 0.56500000 0.56500000
C 36.23920035 9.25649791 8.20759552 5611 243 0 0.56500000 0.56500000 0.56500000
H 39.20986048 11.09027672 15.08965463 5612 243 0 1.00000000 1.00000000 1.00000000
H 38.07934935 12.39153433 14.92140909 5613 243 0 1.00000000 1.00000000 1.00000000
H 39.38183443 12.29261176 13.88305824 5614 243 0 1.00000000 1.00000000 1.00000000
H 37.07655243 11.62062457 12.90871897 5615 243 0 1.00000000 1.00000000 1.00000000
H 37.01524044 10.21365318 13.80583617 5616 243 0 1.00000000 1.00000000 1.00000000
H 39.05384456 9.55423430 12.56180882 5617 243 0 1.00000000 1.00000000 1.00000000
H 39.12105324 11.12693516 11.79202981 5618 243 0 1.00000000 1.00000000 1.00000000
H 36.93663038 10.56724395 10.75904648 5619 243 0 1.00000000 1.00000000 1.00000000
H 36.79980439 9.00941433 11.49989020 5620 243 0 1.00000000 1.00000000 1.00000000
H 38.89323083 8.34426161 10.25646010 5621 243 0 1.00000000 1.00000000 1.00000000
H 38.68160983 9.75790652 9.27647738 5622 243 0 1.00000000 1.00000000 1.00000000
H 36.54115747 7.73009560 9.58686981 5623 243 0 1.00000000 1.00000000 1.00000000
H 37.73596244 7.65208392 8.29511122 5624 243 0 1.00000000 1.00000000 1.00000000
H 35.59421744 9.76722502 8.93863682 5625 243 0 1.00000000 1.00000000 1.00000000
H 35.64509485 8.72290278 7.50511151 5626 243 0 1.00000000 1.00000000 1.00000000
H 36.89082299 9.94781136 7.62334965 5627 243 0 1.00000000 1.00000000 1.00000000
C 13.28990147 14.40932453 18.44361245 5628 244 0 0.56500000 0.56500000 0.56500000
C 14.59345390 13.76169468 18.35576208 5629 244 0 0.56500000 0.56500000 0.56500000
C 14.73217636 12.75909839 19.48300834 5630 244 0 0.56500000 0.56500000 0.56500000
C 15.84477581 11.70151084 19.37415001 5631 244 0 0.56500000 0.56500000 0.56500000
C 15.67366205 10.62694822 20.47941724 5632 244 0 0.56500000 0.56500000 0.56500000
C 15.72153361 11.20909148 21.87902305 5633 244 0 0.56500000 0.56500000 0.56500000
C 15.77799395 10.09957857 22.90380481 5634 244 0 0.56500000 0.56500000 0.56500000
H 13.04653626 15.19620141 17.67143415 5635 244 0 1.00000000 1.00000000 1.00000000
H 13.19085945 14.85504625 19.44553387 5636 244 0 1.00000000 1.00000000 1.00000000
H 12.50593648 13.72298103 18.33537086 5637 244 0 1.00000000 1.00000000 1.00000000
H 15.32727157 14.57017066 18.52546559 5638 244 0 1.00000000 1.00000000 1.00000000
H 14.74793595 13.32722888 17.32803831 5639 244 0 1.00000000 1.00000000 1.00000000
H 13.82396002 12.18635342 19.55278132 5640 244 0 1.00000000 1.00000000 1.00000000
H 14.88875344 13.33961393 20.40831437 5641 244 0 1.00000000 1.00000000 1.00000000
H 16.85822608 12.13783472 19.43326282 5642 244 0 1.00000000 1.00000000 1.00000000
H 15.76302226 11.22332768 18.39537286 5643 244 0 1.00000000 1.00000000 1.00000000
H 16.40003964 9.87645932 20.42031320 5644 244 0 1.00000000 1.00000000 1.00000000
H 14.71437361 10.09199038 20.41046394 5645 244 0 1.00000000 1.00000000 1.00000000
H 14.82979167 11.78834263 22.22248287 5646 244 0 1.00000000 1.00000000 1.00000000
H 16.53714664 11.92591378 22.04885398 5647 244 0 1.00000000 1.00000000 1.00000000
H 16.29280804 9.18379771 22.55519377 5648 244 0 1.00000000 1.00000000 1.00000000
H 14.77319841 9.80866585 23.27412099 5649 244 0 1.00000000 1.00000000 1.00000000
H 16.39331723 10.50859556 23.75041519 5650 244 0 1.00000000 1.00000000 1.00000000
C 9.99566318 2.58615350 24.98460294 5651 245 0 0.56500000 0.56500000 0.56500000
C 8.71442573 2.37560297 24.18973644 5652 245 0 0.56500000 0.56500000 0.56500000
C 7.45990633 2.89925201 24.88036727 5653 245 0 0.56500000 0.56500000 0.56500000
C 7.33812275 4.42231027 25.16478426 5654 245 0 0.56500000 0.56500000 0.56500000
C 6.15188622 4.72619626 26.01931097 5655 245 0 0.56500000 0.56500000 0.56500000
C 6.26237771 4.24147820 27.52691173 5656 245 0 0.56500000 0.56500000 0.56500000
C 7.62792936 4.48857941 28.12362730 5657 245 0 0.56500000 0.56500000 0.56500000
H 10.16682460 3.65825487 25.25569576 5658 245 0 1.00000000 1.00000000 1.00000000
H 10.82066842 2.37502825 24.29898617 5659 245 0 1.00000000 1.00000000 1.00000000
H 10.00463945 1.92132023 25.81301323 5660 245 0 1.00000000 1.00000000 1.00000000
H 8.62124162 1.36682409 23.78931275 5661 245 0 1.00000000 1.00000000 1.00000000
H 8.71239328 2.93114305 23.20916443 5662 245 0 1.00000000 1.00000000 1.00000000
H 7.38307984 2.48104978 25.94290074 5663 245 0 1.00000000 1.00000000 1.00000000
H 6.59298593 2.58142815 24.36095263 5664 245 0 1.00000000 1.00000000 1.00000000
H 7.11470909 4.94278057 24.20572987 5665 245 0 1.00000000 1.00000000 1.00000000
H 8.17943991 4.85861752 25.62393110 5666 245 0 1.00000000 1.00000000 1.00000000
H 5.30020781 4.24543726 25.52994018 5667 245 0 1.00000000 1.00000000 1.00000000
H 5.96657938 5.80003698 26.04860493 5668 245 0 1.00000000 1.00000000 1.00000000
H 6.05341031 3.17071084 27.73461984 5669 245 0 1.00000000 1.00000000 1.00000000
H 5.50704646 4.83472316 28.08829897 5670 245 0 1.00000000 1.00000000 1.00000000
H 8.04033541 5.49332113 27.97778935 5671 245 0 1.00000000 1.00000000 1.00000000
H 8.40647605 3.81152092 27.74710914 5672 245 0 1.00000000 1.00000000 1.00000000
H 7.60215886 4.45246128 29.21642022 5673 245 0 1.00000000 1.00000000 1.00000000
C 3.60988489 24.49934620 24.52271206 5674 246 0 0.56500000 0.56500000 0.56500000
C 4.83919148 25.07635648 25.31262909 5675 246 0 0.56500000 0.56500000 0.56500000
C 5.61689774 26.11311035 24.57506193 5676 246 0 0.56500000 0.56500000 0.56500000
C 6.34014283 25.82534223 23.25944167 5677 246 0 0.56500000 0.56500000 0.56500000
C 6.95766853 27.05904269 22.65754478 5678 246 0 0.56500000 0.56500000 0.56500000
C 7.83084466 26.63668824 21.40581595 5679 246 0 0.56500000 0.56500000 0.56500000
C 8.94831745 27.61730705 21.02872505 5680 246 0 0.56500000 0.56500000 0.56500000
H 2.82026910 25.19731127 24.59011857 5681 246 0 1.00000000 1.00000000 1.00000000
H 3.27757475 23.56655572 24.93271685 5682 246 0 1.00000000 1.00000000 1.00000000
H 3.81481187 24.16602948 23.54650628 5683 246 0 1.00000000 1.00000000 1.00000000
H 5.53751002 24.26774085 25.55750117 5684 246 0 1.00000000 1.00000000 1.00000000
H 4.31684728 25.40456952 26.17754858 5685 246 0 1.00000000 1.00000000 1.00000000
H 6.28566820 26.62333389 25.27452471 5686 246 0 1.00000000 1.00000000 1.00000000
H 4.86198009 26.88032813 24.39668777 5687 246 0 1.00000000 1.00000000 1.00000000
H 5.75863751 25.25164460 22.55925314 5688 246 0 1.00000000 1.00000000 1.00000000
H 7.04366023 25.06007477 23.63606303 5689 246 0 1.00000000 1.00000000 1.00000000
H 7.62868353 27.63604720 23.25809773 5690 246 0 1.00000000 1.00000000 1.00000000
H 6.14517159 27.72381314 22.35785635 5691 246 0 1.00000000 1.00000000 1.00000000
H 7.14313733 26.66627948 20.49583510 5692 246 0 1.00000000 1.00000000 1.00000000
H 8.12715628 25.60146244 21.52550960 5693 246 0 1.00000000 1.00000000 1.00000000
H 8.67007131 28.65857092 20.88585641 5694 246 0 1.00000000 1.00000000 1.00000000
H 9.32353933 27.27662323 20.02806333 5695 246 0 1.00000000 1.00000000 1.00000000
H 9.81002907 27.65590732 21.69793703 5696 246 0 1.00000000 1.00000000 1.00000000
C 39.25922403 12.47557463 8.99255807 5697 247 0 0.56500000 0.56500000 0.56500000
C 39.96812430 13.73377300 8.54153137 5698 247 0 0.56500000 0.56500000 0.56500000
C 41.06908368 14.07549703 9.52022627 5699 247 0 0.56500000 0.56500000 0.56500000
C 41.91977355 15.32472782 9.27191213 5700 247 0 0.56500000 0.56500000 0.56500000
C 43.03062719 15.29707908 10.35002920 5701 247 0 0.56500000 0.56500000 0.56500000
C 44.06907559 16.29698962 10.06355332 5702 247 0 0.56500000 0.56500000 0.56500000
C 43.80740697 17.86741444 10.02903079 5703 247 0 0.56500000 0.56500000 0.56500000
H 39.95463264 11.66751236 9.18229472 5704 247 0 1.00000000 1.00000000 1.00000000
H 38.55149437 12.17801775 8.24007958 5705 247 0 1.00000000 1.00000000 1.00000000
H 38.82012967 12.74848778 9.96242631 5706 247 0 1.00000000 1.00000000 1.00000000
H 39.31471079 14.56682849 8.31237685 5707 247 0 1.00000000 1.00000000 1.00000000
H 40.47145144 13.56008230 7.57760264 5708 247 0 1.00000000 1.00000000 1.00000000
H 41.79090474 13.18335438 9.57907487 5709 247 0 1.00000000 1.00000000 1.00000000
H 40.69413921 14.15355917 10.52391208 5710 247 0 1.00000000 1.00000000 1.00000000
H 41.29434736 16.24129068 9.37342879 5711 247 0 1.00000000 1.00000000 1.00000000
H 42.28630284 15.30895440 8.29978721 5712 247 0 1.00000000 1.00000000 1.00000000
H 43.51806466 14.28720789 10.37358917 5713 247 0 1.00000000 1.00000000 1.00000000
H 42.59951970 15.44771178 11.35083501 5714 247 0 1.00000000 1.00000000 1.00000000
H 44.42179216 16.05735592 8.99975520 5715 247 0 1.00000000 1.00000000 1.00000000
H 44.98268482 16.19579866 10.67707069 5716 247 0 1.00000000 1.00000000 1.00000000
H 44.79848881 18.22887624 9.97223746 5717 247 0 1.00000000 1.00000000 1.00000000
H 43.40777602 18.26379613 10.96908081 5718 247 0 1.00000000 1.00000000 1.00000000
H 43.17394139 18.16935622 9.18213107 5719 247 0 1.00000000 1.00000000 1.00000000
C 14.61355533 3.80792957 15.63560898 5720 248 0 0.56500000 0.56500000 0.56500000
C 13.53658945 3.82964004 14.59970769 5721 248 0 0.56500000 0.56500000 0.56500000
C 13.04572199 5.29429468 14.33634646 5722 248 0 0.56500000 0.56500000 0.56500000
C 11.90871804 5.33925202 13.33795225 5723 248 0 0.56500000 0.56500000 0.56500000
C 11.31120374 6.71727520 13.03585717 5724 248 0 0.56500000 0.56500000 0.56500000
C 10.48641025 7.53980925 14.01098401 5725 248 0 0.56500000 0.56500000 0.56500000
C 10.08627464 8.97123510 13.50545350 5726 248 0 0.56500000 0.56500000 0.56500000
H 15.00469599 2.79103865 15.85985697 5727 248 0 1.00000000 1.00000000 1.00000000
H 14.40261781 4.31522041 16.57625181 5728 248 0 1.00000000 1.00000000 1.00000000
H 15.50584638 4.27628484 15.13717361 5729 248 0 1.00000000 1.00000000 1.00000000
H 12.70928579 3.16599521 14.87971282 5730 248 0 1.00000000 1.00000000 1.00000000
H 14.00208494 3.57288471 13.68483527 5731 248 0 1.00000000 1.00000000 1.00000000
H 13.93073361 5.88186997 13.99080120 5732 248 0 1.00000000 1.00000000 1.00000000
H 12.61028968 5.68324059 15.28601729 5733 248 0 1.00000000 1.00000000 1.00000000
H 11.05438195 4.79730083 13.70437488 5734 248 0 1.00000000 1.00000000 1.00000000
H 12.05967657 4.98649029 12.34610476 5735 248 0 1.00000000 1.00000000 1.00000000
H 10.74920725 6.52392664 12.05859067 5736 248 0 1.00000000 1.00000000 1.00000000
H 12.22588372 7.19154251 12.65666251 5737 248 0 1.00000000 1.00000000 1.00000000
H 11.02642963 7.74510454 14.96241191 5738 248 0 1.00000000 1.00000000 1.00000000
H 9.60795172 7.03065351 14.35894471 5739 248 0 1.00000000 1.00000000 1.00000000
H 9.59728669 8.90335975 12.58213131 5740 248 0 1.00000000 1.00000000 1.00000000
H 10.92405490 9.68305121 13.36334006 5741 248 0 1.00000000 1.00000000 1.00000000
H 9.38628049 9.44025329 14.18016866 5742 248 0 1.00000000 1.00000000 1.00000000
C 15.92445253 20.82576791 37.90484363 5743 249 0 0.56500000 0.56500000 0.56500000
C 14.56544911 21.30642584 37.44652858 5744 249 0 0.56500000 0.56500000 0.56500000
C 13.49855263 20.89346233 38.44232533 5745 249 0 0.56500000 0.56500000 0.56500000
C 13.40503091 19.37139717 38.59111983 5746 249 0 0.56500000 0.56500000 0.56500000
C 12.39079673 19.08849760 39.75409985 5747 249 0 0.56500000 0.56500000 0.56500000
C 12.73866722 19.48563182 41.18163297 5748 249 0 0.56500000 0.56500000 0.56500000
C 11.60562034 19.09921370 42.15290793 5749 249 0 0.56500000 0.56500000 0.56500000
H 16.58092315 20.88090744 37.04914415 5750 249 0 1.00000000 1.00000000 1.00000000
H 16.01682104 19.76658844 38.22006876 5751 249 0 1.00000000 1.00000000 1.00000000
H 16.42195194 21.36151123 38.72548055 5752 249 0 1.00000000 1.00000000 1.00000000
H 14.40120911 20.88703354 36.45001279 5753 249 0 1.00000000 1.00000000 1.00000000
H 14.60091520 22.38523418 37.28969795 5754 249 0 1.00000000 1.00000000 1.00000000
H 12.48976208 21.28649472 38.19245618 5755 249 0 1.00000000 1.00000000 1.00000000
H 13.68975527 21.42877145 39.40613307 5756 249 0 1.00000000 1.00000000 1.00000000
H 14.37783531 18.88702978 38.77583238 5757 249 0 1.00000000 1.00000000 1.00000000
H 12.99763995 18.95883626 37.68165971 5758 249 0 1.00000000 1.00000000 1.00000000
H 12.03229439 18.03230678 39.64492539 5759 249 0 1.00000000 1.00000000 1.00000000
H 11.43420575 19.63775772 39.46387768 5760 249 0 1.00000000 1.00000000 1.00000000
H 12.93607297 20.61118879 41.19498908 5761 249 0 1.00000000 1.00000000 1.00000000
H 13.67974821 18.98239717 41.48030338 5762 249 0 1.00000000 1.00000000 1.00000000
H 10.76928263 19.79089656 42.05482498 5763 249 0 1.00000000 1.00000000 1.00000000
H 11.98475591 19.09457622 43.14945576 5764 249 0 1.00000000 1.00000000 1.00000000
H 11.25436897 18.01443360 42.00659782 5765 249 0 1.00000000 1.00000000 1.00000000
C 31.07350085 35.06856940 25.24377247 5766 250 0 0.56500000 0.56500000 0.56500000
C 30.43363209 34.84673687 23.83875808 5767 250 0 0.56500000 0.56500000 0.56500000
C 31.00099023 35.73916701 22.70049743 5768 250 0 0.56500000 0.56500000 0.56500000
C 30.59550439 35.20681162 21.36352770 5769 250 0 0.56500000 0.56500000 0.56500000
C 30.80015280 35.94680184 20.02333964 5770 250 0 0.56500000 0.56500000 0.56500000
C 30.04996718 35.18710581 18.83876962 5771 250 0 0.56500000 0.56500000 0.56500000
C 30.10356461 35.89706505 17.53871646 5772 250 0 0.56500000 0.56500000 0.56500000
H 30.75573198 36.06752256 25.58261087 5773 250 0 1.00000000 1.00000000 1.00000000
H 32.16075408 35.05290307 25.20358452 5774 250 0 1.00000000 1.00000000 1.00000000
H 30.65668895 34.35259169 25.90598979 5775 250 0 1.00000000 1.00000000 1.00000000
H 29.37318769 35.12742953 24.01711237 5776 250 0 1.00000000 1.00000000 1.00000000
H 30.40190111 33.80188153 23.53016444 5777 250 0 1.00000000 1.00000000 1.00000000
H 32.09944029 35.93183874 22.65302336 5778 250 0 1.00000000 1.00000000 1.00000000
H 30.72888140 36.79906274 22.81225172 5779 250 0 1.00000000 1.00000000 1.00000000
H 29.49938074 35.12488667 21.39718661 5780 250 0 1.00000000 1.00000000 1.00000000
H 31.08543033 34.22681441 21.25184356 5781 250 0 1.00000000 1.00000000 1.00000000
H 31.83713313 36.10407200 19.64091265 5782 250 0 1.00000000 1.00000000 1.00000000
H 30.37347351 37.02633361 20.14417288 5783 250 0 1.00000000 1.00000000 1.00000000
H 29.08912395 34.95196898 19.21186709 5784 250 0 1.00000000 1.00000000 1.00000000
H 30.40181468 34.13841979 18.72977888 5785 250 0 1.00000000 1.00000000 1.00000000
H 29.79439110 35.28335361 16.64129455 5786 250 0 1.00000000 1.00000000 1.00000000
H 31.10454938 36.27129128 17.38837784 5787 250 0 1.00000000 1.00000000 1.00000000
H 29.39536110 36.74478989 17.59218844 5788 250 0 1.00000000 1.00000000 1.00000000
C 5.47697318 3.58441055 7.36432754 5789 251 0 0.56500000 0.56500000 0.56500000
C 5.92090940 2.81342482 6.19554254 5790 251 0 0.56500000 0.56500000 0.56500000
C 7.44299326 2.86461248 6.08819545 5791 251 0 0.56500000 0.56500000 0.56500000
C 7.98526947 2.41062755 4.74142796 5792 251 0 0.56500000 0.56500000 0.56500000
C 9.47087496 2.17917433 4.62823462 5793 251 0 0.56500000 0.56500000 0.56500000
C 9.95819472 1.57641508 3.30432091 5794 251 0 0.56500000 0.56500000 0.56500000
C 9.77613775 0.04278920 3.30544057 5795 251 0 0.56500000 0.56500000 0.56500000
H 4.38121718 3.67646820 7.43718818 5796 251 0 1.00000000 1.00000000 1.00000000
H 5.89674894 4.53304089 7.36721473 5797 251 0 1.00000000 1.00000000 1.00000000
H 5.76651411 3.11310827 8.29685503 5798 251 0 1.00000000 1.00000000 1.00000000
H 5.48892420 3.21683792 5.29035889 5799 251 0 1.00000000 1.00000000 1.00000000
H 5.62379371 1.75594157 6.22784512 5800 251 0 1.00000000 1.00000000 1.00000000
H 7.92860437 2.38399508 6.93054131 5801 251 0 1.00000000 1.00000000 1.00000000
H 7.65839076 3.98596234 6.07986497 5802 251 0 1.00000000 1.00000000 1.00000000
H 7.82667698 3.18867903 3.93922236 5803 251 0 1.00000000 1.00000000 1.00000000
H 7.52361981 1.50701267 4.37687184 5804 251 0 1.00000000 1.00000000 1.00000000
H 9.79805523 1.46679497 5.42086378 5805 251 0 1.00000000 1.00000000 1.00000000
H 10.00519059 3.03535065 4.93391103 5806 251 0 1.00000000 1.00000000 1.00000000
H 11.06038988 1.78189950 3.08819490 5807 251 0 1.00000000 1.00000000 1.00000000
H 9.44408051 2.04384846 2.39936050 5808 251 0 1.00000000 1.00000000 1.00000000
H 10.53093647 -0.51608193 3.82047115 5809 251 0 1.00000000 1.00000000 1.00000000
H 9.92979616 -0.33625398 2.32038983 5810 251 0 1.00000000 1.00000000 1.00000000
H 8.78404009 -0.26873911 3.55293635 5811 251 0 1.00000000 1.00000000 1.00000000
C 26.41645966 23.15544218 0.56360555 5812 252 0 0.56500000 0.56500000 0.56500000
C 27.25906630 23.55709003 -0.58094800 5813 252 0 0.56500000 0.56500000 0.56500000
C 28.71734551 23.61027467 -0.16930331 5814 252 0 0.56500000 0.56500000 0.56500000
C 29.72825781 23.81378323 -1.26216492 5815 252 0 0.56500000 0.56500000 0.56500000
C 29.78246028 25.19700758 -1.97876372 5816 252 0 0.56500000 0.56500000 0.56500000
C 30.71743555 25.20038930 -3.16803600 5817 252 0 0.56500000 0.56500000 0.56500000
C 30.66291671 26.52365282 -3.94028783 5818 252 0 0.56500000 0.56500000 0.56500000
H 26.32196286 22.08691188 0.71688587 5819 252 0 1.00000000 1.00000000 1.00000000
H 25.39105407 23.44245725 0.50938078 5820 252 0 1.00000000 1.00000000 1.00000000
H 26.74031409 23.61229178 1.57891728 5821 252 0 1.00000000 1.00000000 1.00000000
H 26.88555983 24.44021568 -1.07760248 5822 252 0 1.00000000 1.00000000 1.00000000
H 27.09301779 22.88731163 -1.37000518 5823 252 0 1.00000000 1.00000000 1.00000000
H 28.98501896 22.60343566 0.32498997 5824 252 0 1.00000000 1.00000000 1.00000000
H 28.96289856 24.31470700 0.66223918 5825 252 0 1.00000000 1.00000000 1.00000000
H 29.68447254 22.98304127 -1.91038418 5826 252 0 1.00000000 1.00000000 1.00000000
H 30.71890687 23.63629625 -0.83957148 5827 252 0 1.00000000 1.00000000 1.00000000
H 30.10757815 25.94788143 -1.20786359 5828 252 0 1.00000000 1.00000000 1.00000000
H 28.81196986 25.56591022 -2.39789730 5829 252 0 1.00000000 1.00000000 1.00000000
H 30.46571134 24.36702053 -3.83066378 5830 252 0 1.00000000 1.00000000 1.00000000
H 31.66389699 25.00631497 -2.75826798 5831 252 0 1.00000000 1.00000000 1.00000000
H 31.15554403 26.46703887 -4.88332555 5832 252 0 1.00000000 1.00000000 1.00000000
H 31.20678444 27.29347283 -3.37013172 5833 252 0 1.00000000 1.00000000 1.00000000
H 29.57729733 26.85919518 -4.15467955 5834 252 0 1.00000000 1.00000000 1.00000000
C 17.33694554 2.83938148 3.60549270 5835 253 0 0.56500000 0.56500000 0.56500000
C 16.48469559 1.71620084 3.02742728 5836 253 0 0.56500000 0.56500000 0.56500000
C 15.67059210 2.21556415 1.84634463 5837 253 0 0.56500000 0.56500000 0.56500000
C 14.76048202 1.08056493 1.30764984 5838 253 0 0.56500000 0.56500000 0.56500000
C 13.29131413 1.51953950 0.98342669 5839 253 0 0.56500000 0.56500000 0.56500000
C 13.16565912 2.21211182 -0.29750150 5840 253 0 0.56500000 0.56500000 0.56500000
C 11.76474742 2.83170116 -0.38249665 5841 253 0 0.56500000 0.56500000 0.56500000
H 17.84696007 3.25485048 2.69326464 5842 253 0 1.00000000 1.00000000 1.00000000
H 18.11243079 2.48818615 4.28994971 5843 253 0 1.00000000 1.00000000 1.00000000
H 16.87619820 3.63695816 4.04679772 5844 253 0 1.00000000 1.00000000 1.00000000
H 15.80482029 1.15889729 3.75357407 5845 253 0 1.00000000 1.00000000 1.00000000
H 17.14393235 0.98521596 2.57515017 5846 253 0 1.00000000 1.00000000 1.00000000
H 16.36448714 2.47282971 1.02167404 5847 253 0 1.00000000 1.00000000 1.00000000
H 15.12789678 3.15098897 2.04330124 5848 253 0 1.00000000 1.00000000 1.00000000
H 14.90197071 0.28554323 1.98956087 5849 253 0 1.00000000 1.00000000 1.00000000
H 15.22124470 0.74794513 0.39400603 5850 253 0 1.00000000 1.00000000 1.00000000
H 13.08319962 2.38351208 1.71212157 5851 253 0 1.00000000 1.00000000 1.00000000
H 12.62704028 0.78118791 1.29533376 5852 253 0 1.00000000 1.00000000 1.00000000
H 13.19657397 1.46743721 -1.13801301 5853 253 0 1.00000000 1.00000000 1.00000000
H 13.93071614 2.98055574 -0.48962665 5854 253 0 1.00000000 1.00000000 1.00000000
H 11.08707626 2.02270605 -0.17292567 5855 253 0 1.00000000 1.00000000 1.00000000
H 11.62867416 3.38840264 -1.30456018 5856 253 0 1.00000000 1.00000000 1.00000000
H 11.63849064 3.55459868 0.36010783 5857 253 0 1.00000000 1.00000000 1.00000000
C 17.56004301 35.76563282 -1.50575470 5858 254 0 0.56500000 0.56500000 0.56500000
C 17.28498512 37.24912062 -1.25030979 5859 254 0 0.56500000 0.56500000 0.56500000
C 17.23810499 37.59723956 0.25555485 5860 254 0 0.56500000 0.56500000 0.56500000
C 17.38332345 39.16008244 0.38577940 5861 254 0 0.56500000 0.56500000 0.56500000
C 17.88305906 39.59392539 1.68776768 5862 254 0 0.56500000 0.56500000 0.56500000
C 18.22263168 41.10181943 1.69791468 5863 254 0 0.56500000 0.56500000 0.56500000
C 16.96403190 41.96932518 1.78110347 5864 254 0 0.56500000 0.56500000 0.56500000
H 18.58835712 35.40383700 -1.23523903 5865 254 0 1.00000000 1.00000000 1.00000000
H 17.45837312 35.64492592 -2.57293994 5866 254 0 1.00000000 1.00000000 1.00000000
H 16.75176721 35.09472705 -1.09003050 5867 254 0 1.00000000 1.00000000 1.00000000
H 16.40776279 37.53490996 -1.80575781 5868 254 0 1.00000000 1.00000000 1.00000000
H 18.13613727 37.71369375 -1.64360381 5869 254 0 1.00000000 1.00000000 1.00000000
H 18.06200248 37.11341726 0.89781231 5870 254 0 1.00000000 1.00000000 1.00000000
H 16.31053477 37.17581545 0.62078480 5871 254 0 1.00000000 1.00000000 1.00000000
H 16.43388514 39.72843613 0.19629889 5872 254 0 1.00000000 1.00000000 1.00000000
H 18.11975288 39.40669375 -0.40393632 5873 254 0 1.00000000 1.00000000 1.00000000
H 18.73267750 39.05165836 2.04208686 5874 254 0 1.00000000 1.00000000 1.00000000
H 17.14797617 39.63701161 2.47796335 5875 254 0 1.00000000 1.00000000 1.00000000
H 18.73666629 41.46220716 0.79090334 5876 254 0 1.00000000 1.00000000 1.00000000
H 18.88064174 41.26027399 2.56682603 5877 254 0 1.00000000 1.00000000 1.00000000
H 16.29727142 41.56981455 0.99729189 5878 254 0 1.00000000 1.00000000 1.00000000
H 17.23124354 43.08532263 1.60070719 5879 254 0 1.00000000 1.00000000 1.00000000
H 16.38395960 41.93425466 2.70670590 5880 254 0 1.00000000 1.00000000 1.00000000
C 42.41442714 43.82550056 32.37190833 5881 255 0 0.56500000 0.56500000 0.56500000
C 42.80212866 45.11711782 33.15460968 5882 255 0 0.56500000 0.56500000 0.56500000
C 44.32842195 45.16456012 33.35289893 5883 255 0 0.56500000 0.56500000 0.56500000
C 44.74717481 46.54092535 33.78856104 5884 255 0 0.56500000 0.56500000 0.56500000
C 46.22393119 46.76878338 34.17930214 5885 255 0 0.56500000 0.56500000 0.56500000
C 47.12304275 46.99591969 32.97740513 5886 255 0 0.56500000 0.56500000 0.56500000
C 48.53687152 47.44506513 33.36899170 5887 255 0 0.56500000 0.56500000 0.56500000
H 41.33000796 43.60102587 32.34066501 5888 255 0 1.00000000 1.00000000 1.00000000
H 42.91923720 42.89233483 32.65626144 5889 255 0 1.00000000 1.00000000 1.00000000
H 42.74343810 43.77220272 31.31941242 5890 255 0 1.00000000 1.00000000 1.00000000
H 42.33194727 44.97256542 34.14008843 5891 255 0 1.00000000 1.00000000 1.00000000
H 42.37680239 46.00541242 32.66695984 5892 255 0 1.00000000 1.00000000 1.00000000
H 44.83800496 44.95090286 32.40090147 5893 255 0 1.00000000 1.00000000 1.00000000
H 44.68440899 44.31591985 33.96419380 5894 255 0 1.00000000 1.00000000 1.00000000
H 44.20757084 46.71766918 34.68329344 5895 255 0 1.00000000 1.00000000 1.00000000
H 44.53930894 47.35062895 33.07759201 5896 255 0 1.00000000 1.00000000 1.00000000
H 46.70430287 45.81282374 34.60139601 5897 255 0 1.00000000 1.00000000 1.00000000
H 46.40286676 47.57541380 34.83789162 5898 255 0 1.00000000 1.00000000 1.00000000
H 46.70773711 47.82392886 32.33529877 5899 255 0 1.00000000 1.00000000 1.00000000
H 47.27101566 46.09976794 32.31477260 5900 255 0 1.00000000 1.00000000 1.00000000
H 49.24211568 46.61792033 33.68545889 5901 255 0 1.00000000 1.00000000 1.00000000
H 48.56200554 48.20768986 34.18873762 5902 255 0 1.00000000 1.00000000 1.00000000
H 49.00998615 47.90299996 32.48020005 5903 255 0 1.00000000 1.00000000 1.00000000
C 30.41750331 10.51091773 23.79679754 5904 256 0 0.56500000 0.56500000 0.56500000
C 31.43416492 9.55022510 23.20758264 5905 256 0 0.56500000 0.56500000 0.56500000
C 31.09704733 9.22604291 21.67687194 5906 256 0 0.56500000 0.56500000 0.56500000
C 31.56205048 7.99706866 20.96279093 5907 256 0 0.56500000 0.56500000 0.56500000
C 33.12971535 8.04764258 20.95576907 5908 256 0 0.56500000 0.56500000 0.56500000
C 33.76793181 6.74764408 20.45932944 5909 256 0 0.56500000 0.56500000 0.56500000
C 35.28513963 6.68591304 20.62889012 5910 256 0 0.56500000 0.56500000 0.56500000
H 30.47653658 10.60417771 24.87420207 5911 256 0 1.00000000 1.00000000 1.00000000
H 29.38101753 10.13682946 23.51963757 5912 256 0 1.00000000 1.00000000 1.00000000
H 30.49516131 11.51600200 23.49539605 5913 256 0 1.00000000 1.00000000 1.00000000
H 31.26962917 8.63956540 23.76014925 5914 256 0 1.00000000 1.00000000 1.00000000
H 32.45429068 9.90622251 23.32080694 5915 256 0 1.00000000 1.00000000 1.00000000
H 31.42068759 10.08063271 20.97350295 5916 256 0 1.00000000 1.00000000 1.00000000
H 29.95577238 9.19507899 21.66009980 5917 256 0 1.00000000 1.00000000 1.00000000
H 31.03627945 8.06008775 20.00796458 5918 256 0 1.00000000 1.00000000 1.00000000
H 31.19528689 7.04060045 21.44262511 5919 256 0 1.00000000 1.00000000 1.00000000
H 33.28890123 8.12279179 22.04769380 5920 256 0 1.00000000 1.00000000 1.00000000
H 33.43155016 8.85759762 20.36646522 5921 256 0 1.00000000 1.00000000 1.00000000
H 33.54145018 6.43469075 19.37845529 5922 256 0 1.00000000 1.00000000 1.00000000
H 33.34716110 5.84602224 21.05912868 5923 256 0 1.00000000 1.00000000 1.00000000
H 35.57535821 6.66548876 21.66267636 5924 256 0 1.00000000 1.00000000 1.00000000
H 35.73737675 7.50025706 20.02924070 5925 256 0 1.00000000 1.00000000 1.00000000
H 35.69039356 5.74643045 20.14973655 5926 256 0 1.00000000 1.00000000 1.00000000
C 4.42290178 21.95194131 14.62004894 5927 257 0 0.56500000 0.56500000 0.56500000
C 3.62716529 23.16112411 14.22329381 5928 257 0 0.56500000 0.56500000 0.56500000
C 3.86998364 23.62674373 12.75279621 5929 257 0 0.56500000 0.56500000 0.56500000
C 2.87070786 24.70272349 12.28844456 5930 257 0 0.56500000 0.56500000 0.56500000
C 2.74499265 24.72629191 10.75411835 5931 257 0 0.56500000 0.56500000 0.56500000
C 1.73844553 23.62330776 10.28899891 5932 257 0 0.56500000 0.56500000 0.56500000
C 0.92952764 23.89909921 8.99600186 5933 257 0 0.56500000 0.56500000 0.56500000
H 4.10636422 21.77032756 15.64904754 5934 257 0 1.00000000 1.00000000 1.00000000
H 5.46166543 22.17567522 14.65099526 5935 257 0 1.00000000 1.00000000 1.00000000
H 4.20346178 21.05958341 13.94497375 5936 257 0 1.00000000 1.00000000 1.00000000
H 3.87677402 24.00810887 14.93292230 5937 257 0 1.00000000 1.00000000 1.00000000
H 2.55367201 22.93256275 14.44424348 5938 257 0 1.00000000 1.00000000 1.00000000
H 3.76804202 22.82688493 12.05752117 5939 257 0 1.00000000 1.00000000 1.00000000
H 4.89723292 24.01529528 12.54762691 5940 257 0 1.00000000 1.00000000 1.00000000
H 3.22745343 25.69247357 12.65690034 5941 257 0 1.00000000 1.00000000 1.00000000
H 1.88323210 24.63648054 12.74813222 5942 257 0 1.00000000 1.00000000 1.00000000
H 3.68767254 24.68811879 10.22571410 5943 257 0 1.00000000 1.00000000 1.00000000
H 2.28903787 25.69549956 10.41488460 5944 257 0 1.00000000 1.00000000 1.00000000
H 0.96116895 23.63613355 11.09064736 5945 257 0 1.00000000 1.00000000 1.00000000
H 2.22240555 22.63680849 10.37909301 5946 257 0 1.00000000 1.00000000 1.00000000
H 0.70153922 24.96092523 9.00910613 5947 257 0 1.00000000 1.00000000 1.00000000
H -0.00449366 23.32779134 8.98652021 5948 257 0 1.00000000 1.00000000 1.00000000
H 1.48403504 23.52900299 8.15586762 5949 257 0 1.00000000 1.00000000 1.00000000
C 41.98734182 28.86378854 -4.48759476 5950 258 0 0.56500000 0.56500000 0.56500000
C 41.36759076 29.81902681 -3.46032107 5951 258 0 0.56500000 0.56500000 0.56500000
C 40.23665025 29.24417756 -2.67295163 5952 258 0 0.56500000 0.56500000 0.56500000
C 40.33534101 27.80659790 -2.21273552 5953 258 0 0.56500000 0.56500000 0.56500000
C 39.20563642 27.57933205 -1.23793804 5954 258 0 0.56500000 0.56500000 0.56500000
C 39.04202979 26.05217098 -0.78145709 5955 258 0 0.56500000 0.56500000 0.56500000
C 37.56720683 25.65106176 -0.59789352 5956 258 0 0.56500000 0.56500000 0.56500000
H 41.32387166 28.50413057 -5.29688550 5957 258 0 1.00000000 1.00000000 1.00000000
H 42.48576533 27.98872047 -3.97510744 5958 258 0 1.00000000 1.00000000 1.00000000
H 42.75128283 29.37477894 -5.13875656 5959 258 0 1.00000000 1.00000000 1.00000000
H 40.91563899 30.58062546 -4.10467108 5960 258 0 1.00000000 1.00000000 1.00000000
H 42.15607941 30.37059339 -2.89896340 5961 258 0 1.00000000 1.00000000 1.00000000
H 39.34996404 29.37126754 -3.25647218 5962 258 0 1.00000000 1.00000000 1.00000000
H 40.15336695 29.89399564 -1.77041035 5963 258 0 1.00000000 1.00000000 1.00000000
H 41.31997450 27.52905771 -1.77611983 5964 258 0 1.00000000 1.00000000 1.00000000
H 40.23235813 27.07180673 -3.04225279 5965 258 0 1.00000000 1.00000000 1.00000000
H 38.25323157 27.89427953 -1.62138707 5966 258 0 1.00000000 1.00000000 1.00000000
H 39.34279816 28.15571684 -0.33425268 5967 258 0 1.00000000 1.00000000 1.00000000
H 39.58770804 25.94348635 0.18064289 5968 258 0 1.00000000 1.00000000 1.00000000
H 39.50531812 25.40873400 -1.51784423 5969 258 0 1.00000000 1.00000000 1.00000000
H 36.99713256 26.25257438 0.16519832 5970 258 0 1.00000000 1.00000000 1.00000000
H 37.51065004 24.55240734 -0.26671837 5971 258 0 1.00000000 1.00000000 1.00000000
H 36.95439182 25.67185199 -1.53602886 5972 258 0 1.00000000 1.00000000 1.00000000
C 28.23190571 34.27783818 27.29446905 5973 259 0 0.56500000 0.56500000 0.56500000
C 28.86778098 32.87156547 27.11282011 5974 259 0 0.56500000 0.56500000 0.56500000
C 28.34111706 31.74320897 27.97018743 5975 259 0 0.56500000 0.56500000 0.56500000
C 28.94564251 30.34552981 27.70639515 5976 259 0 0.56500000 0.56500000 0.56500000
C 30.21836599 29.99534173 28.40779333 5977 259 0 0.56500000 0.56500000 0.56500000
C 30.38994185 28.48573312 28.60328875 5978 259 0 0.56500000 0.56500000 0.56500000
C 30.65207962 27.62448398 27.29905554 5979 259 0 0.56500000 0.56500000 0.56500000
H 28.80651362 34.99761823 26.72794293 5980 259 0 1.00000000 1.00000000 1.00000000
H 28.40897208 34.48735319 28.38287473 5981 259 0 1.00000000 1.00000000 1.00000000
H 27.17985059 34.23411051 26.99272883 5982 259 0 1.00000000 1.00000000 1.00000000
H 29.99205401 33.00414585 27.25469191 5983 259 0 1.00000000 1.00000000 1.00000000
H 28.81158672 32.58866429 25.99705266 5984 259 0 1.00000000 1.00000000 1.00000000
H 27.28474944 31.57631039 27.76599429 5985 259 0 1.00000000 1.00000000 1.00000000
H 28.47138728 32.01265305 29.04260364 5986 259 0 1.00000000 1.00000000 1.00000000
H 28.99893955 30.24437342 26.58828539 5987 259 0 1.00000000 1.00000000 1.00000000
H 28.23712368 29.50730642 28.05016803 5988 259 0 1.00000000 1.00000000 1.00000000
H 30.17168865 30.45497406 29.37509651 5989 259 0 1.00000000 1.00000000 1.00000000
H 31.09058629 30.44418237 27.96136040 5990 259 0 1.00000000 1.00000000 1.00000000
H 29.52522140 27.92160579 29.00312021 5991 259 0 1.00000000 1.00000000 1.00000000
H 31.22387334 28.33620893 29.26558545 5992 259 0 1.00000000 1.00000000 1.00000000
H 30.74896812 26.51804016 27.54060942 5993 259 0 1.00000000 1.00000000 1.00000000
H 31.60887010 27.89390506 26.74336512 5994 259 0 1.00000000 1.00000000 1.00000000
H 29.86029594 27.72878638 26.48906493 5995 259 0 1.00000000 1.00000000 1.00000000
C 10.59801992 17.91960873 -3.47032166 5996 260 0 0.56500000 0.56500000 0.56500000
C 10.84570150 18.20254165 -2.02026791 5997 260 0 0.56500000 0.56500000 0.56500000
C 10.90505780 19.70860502 -1.69073953 5998 260 0 0.56500000 0.56500000 0.56500000
C 10.77327315 19.94752471 -0.16218694 5999 260 0 0.56500000 0.56500000 0.56500000
C 11.65034078 18.94443402 0.68816898 6000 260 0 0.56500000 0.56500000 0.56500000
C 10.98594057 18.67186082 2.11502087 6001 260 0 0.56500000 0.56500000 0.56500000
C 9.69260264 17.90585264 1.86918773 6002 260 0 0.56500000 0.56500000 0.56500000
H 11.34280362 18.37044825 -4.14385382 6003 260 0 1.00000000 1.00000000 1.00000000
H 9.69167931 18.30864949 -3.83578806 6004 260 0 1.00000000 1.00000000 1.00000000
H 10.55282070 16.83740128 -3.59789156 6005 260 0 1.00000000 1.00000000 1.00000000
H 11.79277003 17.82978756 -1.72844061 6006 260 0 1.00000000 1.00000000 1.00000000
H 10.03056179 17.78479510 -1.30574743 6007 260 0 1.00000000 1.00000000 1.00000000
H 10.09531030 20.33470282 -2.09285861 6008 260 0 1.00000000 1.00000000 1.00000000
H 11.88208846 20.01781852 -2.07085628 6009 260 0 1.00000000 1.00000000 1.00000000
H 9.67835878 19.92812869 0.13493368 6010 260 0 1.00000000 1.00000000 1.00000000
H 11.10139263 20.93982317 0.10659961 6011 260 0 1.00000000 1.00000000 1.00000000
H 12.66067625 19.30973218 0.86252753 6012 260 0 1.00000000 1.00000000 1.00000000
H 11.57614879 17.94461730 0.23051647 6013 260 0 1.00000000 1.00000000 1.00000000
H 10.93308605 19.61814680 2.69748157 6014 260 0 1.00000000 1.00000000 1.00000000
H 11.75259491 18.09606498 2.65293936 6015 260 0 1.00000000 1.00000000 1.00000000
H 9.26238123 17.60903324 2.84056667 6016 260 0 1.00000000 1.00000000 1.00000000
H 9.92667760 17.00304361 1.27891160 6017 260 0 1.00000000 1.00000000 1.00000000
H 8.92608158 18.65831294 1.52178058 6018 260 0 1.00000000 1.00000000 1.00000000
C 14.35644728 12.17747541 1.99911077 6019 261 0 0.56500000 0.56500000 0.56500000
C 14.70680533 11.92301834 3.38246635 6020 261 0 0.56500000 0.56500000 0.56500000
C 13.68349417 12.11639688 4.50240971 6021 261 0 0.56500000 0.56500000 0.56500000
C 13.41829744 13.58812630 4.75817384 6022 261 0 0.56500000 0.56500000 0.56500000
C 12.31364540 13.79247208 5.80272361 6023 261 0 0.56500000 0.56500000 0.56500000
C 11.97492689 15.32707581 6.01492201 6024 261 0 0.56500000 0.56500000 0.56500000
C 11.38934391 15.93472404 4.79442687 6025 261 0 0.56500000 0.56500000 0.56500000
H 14.17641480 13.20693802 1.78401200 6026 261 0 1.00000000 1.00000000 1.00000000
H 13.49504857 11.53181528 1.67874849 6027 261 0 1.00000000 1.00000000 1.00000000
H 15.24421845 12.02103095 1.38649461 6028 261 0 1.00000000 1.00000000 1.00000000
H 15.56246220 12.49097946 3.64702811 6029 261 0 1.00000000 1.00000000 1.00000000
H 14.98740248 10.86909812 3.52774657 6030 261 0 1.00000000 1.00000000 1.00000000
H 14.09614306 11.70630693 5.45863517 6031 261 0 1.00000000 1.00000000 1.00000000
H 12.73842133 11.51931743 4.29028555 6032 261 0 1.00000000 1.00000000 1.00000000
H 13.06583829 14.06254777 3.80419255 6033 261 0 1.00000000 1.00000000 1.00000000
H 14.30850480 14.13661548 5.04914528 6034 261 0 1.00000000 1.00000000 1.00000000
H 12.45193585 13.32486889 6.80135838 6035 261 0 1.00000000 1.00000000 1.00000000
H 11.39922239 13.29143458 5.40705223 6036 261 0 1.00000000 1.00000000 1.00000000
H 12.82144887 16.03895229 6.18076257 6037 261 0 1.00000000 1.00000000 1.00000000
H 11.26077586 15.40148156 6.85104428 6038 261 0 1.00000000 1.00000000 1.00000000
H 12.05330143 15.75414731 3.91815543 6039 261 0 1.00000000 1.00000000 1.00000000
H 11.27775056 17.02689777 4.82352902 6040 261 0 1.00000000 1.00000000 1.00000000
H 10.34888464 15.58604892 4.49851490 6041 261 0 1.00000000 1.00000000 1.00000000
C 26.26799278 36.65775779 20.44160972 6042 262 0 0.56500000 0.56500000 0.56500000
C 27.24134458 37.03340734 21.53926000 6043 262 0 0.56500000 0.56500000 0.56500000
C 26.76390957 38.08246885 22.52251206 6044 262 0 0.56500000 0.56500000 0.56500000
C 27.75697732 38.57354529 23.58057559 6045 262 0 0.56500000 0.56500000 0.56500000
C 28.51397039 39.91897667 23.24506498 6046 262 0 0.56500000 0.56500000 0.56500000
C 29.46849270 39.97146138 21.99005823 6047 262 0 0.56500000 0.56500000 0.56500000
C 30.14459182 41.24346055 21.98982736 6048 262 0 0.56500000 0.56500000 0.56500000
H 25.28100381 36.31751287 20.84136759 6049 262 0 1.00000000 1.00000000 1.00000000
H 26.57209020 35.82925631 19.82778338 6050 262 0 1.00000000 1.00000000 1.00000000
H 26.09422483 37.52360414 19.86815208 6051 262 0 1.00000000 1.00000000 1.00000000
H 28.07304612 37.44622170 21.06163962 6052 262 0 1.00000000 1.00000000 1.00000000
H 27.57750264 36.19025878 22.13675013 6053 262 0 1.00000000 1.00000000 1.00000000
H 26.00343879 37.52585647 23.06271598 6054 262 0 1.00000000 1.00000000 1.00000000
H 26.39969869 38.97930133 22.02531244 6055 262 0 1.00000000 1.00000000 1.00000000
H 28.57844307 37.88020734 23.94902999 6056 262 0 1.00000000 1.00000000 1.00000000
H 27.25187989 38.75929121 24.50244895 6057 262 0 1.00000000 1.00000000 1.00000000
H 29.04851350 40.13938139 24.09350829 6058 262 0 1.00000000 1.00000000 1.00000000
H 27.77389562 40.73298679 23.09171471 6059 262 0 1.00000000 1.00000000 1.00000000
H 28.87814953 39.63015933 21.03091395 6060 262 0 1.00000000 1.00000000 1.00000000
H 30.22170656 39.14443234 22.16524065 6061 262 0 1.00000000 1.00000000 1.00000000
H 30.34226391 41.52335571 22.97874216 6062 262 0 1.00000000 1.00000000 1.00000000
H 29.49597460 42.07601275 21.56143227 6063 262 0 1.00000000 1.00000000 1.00000000
H 31.09517002 41.30988646 21.26963329 6064 262 0 1.00000000 1.00000000 1.00000000
C 39.80042794 13.11969740 20.39253418 6065 263 0 0.56500000 0.56500000 0.56500000
C 38.49565631 12.87824940 21.16769442 6066 263 0 0.56500000 0.56500000 0.56500000
C 38.48176240 13.84242106 22.36809771 6067 263 0 0.56500000 0.56500000 0.56500000
C 39.75361264 13.71873536 23.27432614 6068 263 0 0.56500000 0.56500000 0.56500000
C 39.74901608 14.65560780 24.55648169 6069 263 0 0.56500000 0.56500000 0.56500000
C 38.77978872 14.27063485 25.61126188 6070 263 0 0.56500000 0.56500000 0.56500000
C 38.89853554 12.87519092 26.15442322 6071 263 0 0.56500000 0.56500000 0.56500000
H 39.92989280 14.21022784 20.39495775 6072 263 0 1.00000000 1.00000000 1.00000000
H 39.73319336 12.78013530 19.35235798 6073 263 0 1.00000000 1.00000000 1.00000000
H 40.62795182 12.61106827 20.79181701 6074 263 0 1.00000000 1.00000000 1.00000000
H 38.47119653 11.81299609 21.52217671 6075 263 0 1.00000000 1.00000000 1.00000000
H 37.55680370 13.01133769 20.63631437 6076 263 0 1.00000000 1.00000000 1.00000000
H 37.63734528 13.62741192 22.92024099 6077 263 0 1.00000000 1.00000000 1.00000000
H 38.56920780 14.81651650 21.91912829 6078 263 0 1.00000000 1.00000000 1.00000000
H 40.62586419 13.97264396 22.68719394 6079 263 0 1.00000000 1.00000000 1.00000000
H 39.79856301 12.69927109 23.66786255 6080 263 0 1.00000000 1.00000000 1.00000000
H 39.59073003 15.70645503 24.29394768 6081 263 0 1.00000000 1.00000000 1.00000000
H 40.75185967 14.64380087 24.97070712 6082 263 0 1.00000000 1.00000000 1.00000000
H 37.71170507 14.37260585 25.35298289 6083 263 0 1.00000000 1.00000000 1.00000000
H 38.86993780 14.90129799 26.47223583 6084 263 0 1.00000000 1.00000000 1.00000000
H 39.86241244 12.52239780 26.44747486 6085 263 0 1.00000000 1.00000000 1.00000000
H 38.64717423 12.09312417 25.45036591 6086 263 0 1.00000000 1.00000000 1.00000000
H 38.23451660 12.84707080 27.02284254 6087 263 0 1.00000000 1.00000000 1.00000000
C 12.15604538 11.27255581 27.83484805 6088 264 0 0.56500000 0.56500000 0.56500000
C 12.12049024 12.27936521 29.00058632 6089 264 0 0.56500000 0.56500000 0.56500000
C 10.78179238 12.32417715 29.81265827 6090 264 0 0.56500000 0.56500000 0.56500000
C 10.88372923 13.16134813 31.15847520 6091 264 0 0.56500000 0.56500000 0.56500000
C 11.52283130 12.46047534 32.44195110 6092 264 0 0.56500000 0.56500000 0.56500000
C 11.09459438 13.08085631 33.75869683 6093 264 0 0.56500000 0.56500000 0.56500000
C 9.61054810 13.08789267 34.11170099 6094 264 0 0.56500000 0.56500000 0.56500000
H 13.16193699 11.24122868 27.42532070 6095 264 0 1.00000000 1.00000000 1.00000000
H 11.43823113 11.59616174 27.07466081 6096 264 0 1.00000000 1.00000000 1.00000000
H 11.86791527 10.27620035 28.14099221 6097 264 0 1.00000000 1.00000000 1.00000000
H 12.29670958 13.28101300 28.67285058 6098 264 0 1.00000000 1.00000000 1.00000000
H 12.86647293 12.06518567 29.77206188 6099 264 0 1.00000000 1.00000000 1.00000000
H 10.51046876 11.26223439 29.90793887 6100 264 0 1.00000000 1.00000000 1.00000000
H 10.02057304 12.85447479 29.21675849 6101 264 0 1.00000000 1.00000000 1.00000000
H 9.88649921 13.52469451 31.46891293 6102 264 0 1.00000000 1.00000000 1.00000000
H 11.50112560 14.02061565 30.96217523 6103 264 0 1.00000000 1.00000000 1.00000000
H 12.61524682 12.48620917 32.35744723 6104 264 0 1.00000000 1.00000000 1.00000000
H 11.25642652 11.35160099 32.51750100 6105 264 0 1.00000000 1.00000000 1.00000000
H 11.45631405 14.10076547 33.79408817 6106 264 0 1.00000000 1.00000000 1.00000000
H 11.60746061 12.51256847 34.55350197 6107 264 0 1.00000000 1.00000000 1.00000000
H 9.33453525 12.06753239 34.37694741 6108 264 0 1.00000000 1.00000000 1.00000000
H 9.00835026 13.54926885 33.37396401 6109 264 0 1.00000000 1.00000000 1.00000000
H 9.50143766 13.62541504 35.01949023 6110 264 0 1.00000000 1.00000000 1.00000000
C 12.77186837 3.80717996 8.70755525 6111 265 0 0.56500000 0.56500000 0.56500000
C 13.11254936 3.36001546 7.29867709 6112 265 0 0.56500000 0.56500000 0.56500000
C 13.30077868 4.60229656 6.38418276 6113 265 0 0.56500000 0.56500000 0.56500000
C 13.37257498 4.39059013 4.86483726 6114 265 0 0.56500000 0.56500000 0.56500000
C 13.29620870 5.71577656 4.05598128 6115 265 0 0.56500000 0.56500000 0.56500000
C 11.85240290 6.25267015 4.05482196 6116 265 0 0.56500000 0.56500000 0.56500000
C 11.85677083 7.60243326 3.34407608 6117 265 0 0.56500000 0.56500000 0.56500000
H 11.66778999 3.91875112 8.85974805 6118 265 0 1.00000000 1.00000000 1.00000000
H 13.24180802 4.74071404 8.90431429 6119 265 0 1.00000000 1.00000000 1.00000000
H 13.02089470 3.14202922 9.57728440 6120 265 0 1.00000000 1.00000000 1.00000000
H 12.31832449 2.75394007 6.90806398 6121 265 0 1.00000000 1.00000000 1.00000000
H 13.99255223 2.81354986 7.21999057 6122 265 0 1.00000000 1.00000000 1.00000000
H 14.21958251 5.09445307 6.65210216 6123 265 0 1.00000000 1.00000000 1.00000000
H 12.51027685 5.29804907 6.61165509 6124 265 0 1.00000000 1.00000000 1.00000000
H 12.63159831 3.65640462 4.55797575 6125 265 0 1.00000000 1.00000000 1.00000000
H 14.37187170 3.83530817 4.53330883 6126 265 0 1.00000000 1.00000000 1.00000000
H 13.63723323 5.56071663 3.05665266 6127 265 0 1.00000000 1.00000000 1.00000000
H 13.96732094 6.35493592 4.61523614 6128 265 0 1.00000000 1.00000000 1.00000000
H 11.37877272 6.29355263 5.03292353 6129 265 0 1.00000000 1.00000000 1.00000000
H 11.12552286 5.65332422 3.54840477 6130 265 0 1.00000000 1.00000000 1.00000000
H 12.40475015 7.47033523 2.40388560 6131 265 0 1.00000000 1.00000000 1.00000000
H 12.58833382 8.25299925 3.89736456 6132 265 0 1.00000000 1.00000000 1.00000000
H 10.85226494 8.06343129 3.22614710 6133 265 0 1.00000000 1.00000000 1.00000000
C 39.91344420 40.48373794 6.37720512 6134 266 0 0.56500000 0.56500000 0.56500000
C 39.95289846 39.03948411 6.03981338 6135 266 0 0.56500000 0.56500000 0.56500000
C 39.80748236 38.25167616 7.42736055 6136 266 0 0.56500000 0.56500000 0.56500000
C 41.18662580 37.92095124 7.99412036 6137 266 0 0.56500000 0.56500000 0.56500000
C 41.24611261 37.07610943 9.19812133 6138 266 0 0.56500000 0.56500000 0.56500000
C 40.69197342 35.62666071 8.99236889 6139 266 0 0.56500000 0.56500000 0.56500000
C 40.89874615 34.91850339 10.32674236 6140 266 0 0.56500000 0.56500000 0.56500000
H 38.88826318 40.87201262 6.49409278 6141 266 0 1.00000000 1.00000000 1.00000000
H 40.30169298 41.21481285 5.67447696 6142 266 0 1.00000000 1.00000000 1.00000000
H 40.49789354 40.64945365 7.30216134 6143 266 0 1.00000000 1.00000000 1.00000000
H 40.90527699 38.71122996 5.60865037 6144 266 0 1.00000000 1.00000000 1.00000000
H 39.13132142 38.81682026 5.32321253 6145 266 0 1.00000000 1.00000000 1.00000000
H 39.28196401 37.29185088 7.25763321 6146 266 0 1.00000000 1.00000000 1.00000000
H 39.25990975 38.86600437 8.14632200 6147 266 0 1.00000000 1.00000000 1.00000000
H 41.79502751 38.81145544 8.19301248 6148 266 0 1.00000000 1.00000000 1.00000000
H 41.75776459 37.50296151 7.15684284 6149 266 0 1.00000000 1.00000000 1.00000000
H 40.67916054 37.55774238 10.04295010 6150 266 0 1.00000000 1.00000000 1.00000000
H 42.23181044 36.94390500 9.54899174 6151 266 0 1.00000000 1.00000000 1.00000000
H 41.23645167 35.04518421 8.21771236 6152 266 0 1.00000000 1.00000000 1.00000000
H 39.66054315 35.74204133 8.79928486 6153 266 0 1.00000000 1.00000000 1.00000000
H 40.57250844 33.86060097 10.34131369 6154 266 0 1.00000000 1.00000000 1.00000000
H 40.44687619 35.40415561 11.18602325 6155 266 0 1.00000000 1.00000000 1.00000000
H 42.00821137 34.78673064 10.59118656 6156 266 0 1.00000000 1.00000000 1.00000000
C 8.75324807 21.73563910 3.76293951 6157 267 0 0.56500000 0.56500000 0.56500000
C 8.78898895 22.62683018 5.00738452 6158 267 0 0.56500000 0.56500000 0.56500000
C 9.51856555 23.95200587 4.72522012 6159 267 0 0.56500000 0.56500000 0.56500000
C 9.13027748 25.03639520 5.78752802 6160 267 0 0.56500000 0.56500000 0.56500000
C 9.96179080 26.34887657 5.69696701 6161 267 0 0.56500000 0.56500000 0.56500000
C 9.94768631 26.98610689 4.32565693 6162 267 0 0.56500000 0.56500000 0.56500000
C 8.59863388 27.58207962 3.85948465 6163 267 0 0.56500000 0.56500000 0.56500000
H 8.28899444 20.76500459 3.71317505 6164 267 0 1.00000000 1.00000000 1.00000000
H 9.74643725 21.51371629 3.42739032 6165 267 0 1.00000000 1.00000000 1.00000000
H 8.36945431 22.37155063 2.93057287 6166 267 0 1.00000000 1.00000000 1.00000000
H 9.24532765 22.10701974 5.91655325 6167 267 0 1.00000000 1.00000000 1.00000000
H 7.78776427 22.84976462 5.32291706 6168 267 0 1.00000000 1.00000000 1.00000000
H 9.22527248 24.32649549 3.72453865 6169 267 0 1.00000000 1.00000000 1.00000000
H 10.62336551 23.74735034 4.62453724 6170 267 0 1.00000000 1.00000000 1.00000000
H 9.34786059 24.57281324 6.79319682 6171 267 0 1.00000000 1.00000000 1.00000000
H 8.04864491 25.27948634 5.78674972 6172 267 0 1.00000000 1.00000000 1.00000000
H 10.95690430 26.05878934 5.97919772 6173 267 0 1.00000000 1.00000000 1.00000000
H 9.55547842 27.03893755 6.38921895 6174 267 0 1.00000000 1.00000000 1.00000000
H 10.35299114 26.27324160 3.66551838 6175 267 0 1.00000000 1.00000000 1.00000000
H 10.65564379 27.87563692 4.24328841 6176 267 0 1.00000000 1.00000000 1.00000000
H 7.73626713 26.88691841 3.91620015 6177 267 0 1.00000000 1.00000000 1.00000000
H 8.74493512 28.03998942 2.86844912 6178 267 0 1.00000000 1.00000000 1.00000000
H 8.32255387 28.35657662 4.59539789 6179 267 0 1.00000000 1.00000000 1.00000000
C 25.71579418 26.85467612 11.33429655 6180 268 0 0.56500000 0.56500000 0.56500000
C 27.00117563 26.79495869 12.18437647 6181 268 0 0.56500000 0.56500000 0.56500000
C 27.30314195 28.08052982 12.94711542 6182 268 0 0.56500000 0.56500000 0.56500000
C 28.12366234 27.94323320 14.23424151 6183 268 0 0.56500000 0.56500000 0.56500000
C 29.50189035 27.32641218 14.01091553 6184 268 0 0.56500000 0.56500000 0.56500000
C 30.27696334 27.20279278 15.29369284 6185 268 0 0.56500000 0.56500000 0.56500000
C 29.78225524 26.03043716 16.19225390 6186 268 0 0.56500000 0.56500000 0.56500000
H 24.88155825 27.08805652 12.00174513 6187 268 0 1.00000000 1.00000000 1.00000000
H 25.39049521 25.88940067 10.96935239 6188 268 0 1.00000000 1.00000000 1.00000000
H 25.89991672 27.63017728 10.54881800 6189 268 0 1.00000000 1.00000000 1.00000000
H 27.87114013 26.42786510 11.58670420 6190 268 0 1.00000000 1.00000000 1.00000000
H 26.82452322 26.12600820 13.07142363 6191 268 0 1.00000000 1.00000000 1.00000000
H 26.36891711 28.51523757 13.20832253 6192 268 0 1.00000000 1.00000000 1.00000000
H 27.71504153 28.77427604 12.27905967 6193 268 0 1.00000000 1.00000000 1.00000000
H 27.53891956 27.25224930 14.92512134 6194 268 0 1.00000000 1.00000000 1.00000000
H 28.13042490 28.95228508 14.63482996 6195 268 0 1.00000000 1.00000000 1.00000000
H 30.06961475 28.08373960 13.46192226 6196 268 0 1.00000000 1.00000000 1.00000000
H 29.47106248 26.34291399 13.56837151 6197 268 0 1.00000000 1.00000000 1.00000000
H 30.15310792 28.17441797 15.85115461 6198 268 0 1.00000000 1.00000000 1.00000000
H 31.35438627 27.15662346 15.08796122 6199 268 0 1.00000000 1.00000000 1.00000000
H 28.66435854 26.07281587 16.39211880 6200 268 0 1.00000000 1.00000000 1.00000000
H 30.38213210 26.02604810 17.17413293 6201 268 0 1.00000000 1.00000000 1.00000000
H 29.79990358 25.01487581 15.75336346 6202 268 0 1.00000000 1.00000000 1.00000000
C -3.52094319 31.43410164 10.73843523 6203 269 0 0.56500000 0.56500000 0.56500000
C -2.23639539 30.95572958 11.48155132 6204 269 0 0.56500000 0.56500000 0.56500000
C -0.97766100 31.84396546 11.03690131 6205 269 0 0.56500000 0.56500000 0.56500000
C -0.75433235 31.76156644 9.55433705 6206 269 0 0.56500000 0.56500000 0.56500000
C 0.66805389 32.09312272 9.16159854 6207 269 0 0.56500000 0.56500000 0.56500000
C 0.77420448 32.00602211 7.66128570 6208 269 0 0.56500000 0.56500000 0.56500000
C 2.23916273 32.13896825 7.30366069 6209 269 0 0.56500000 0.56500000 0.56500000
H -4.37902829 30.83290379 10.87914324 6210 269 0 1.00000000 1.00000000 1.00000000
H -3.37023188 31.65394934 9.71768759 6211 269 0 1.00000000 1.00000000 1.00000000
H -3.83684064 32.38882123 11.16698260 6212 269 0 1.00000000 1.00000000 1.00000000
H -1.98455624 29.92646934 11.17320516 6213 269 0 1.00000000 1.00000000 1.00000000
H -2.36573500 30.98326555 12.53990694 6214 269 0 1.00000000 1.00000000 1.00000000
H -0.06669342 31.54273958 11.55973932 6215 269 0 1.00000000 1.00000000 1.00000000
H -1.20771416 32.87245597 11.32421195 6216 269 0 1.00000000 1.00000000 1.00000000
H -1.56908854 32.15375654 8.97541737 6217 269 0 1.00000000 1.00000000 1.00000000
H -0.86717252 30.68961392 9.34660914 6218 269 0 1.00000000 1.00000000 1.00000000
H 1.37879877 31.39274090 9.62665945 6219 269 0 1.00000000 1.00000000 1.00000000
H 1.04661590 33.06920946 9.64323120 6220 269 0 1.00000000 1.00000000 1.00000000
H 0.24379108 32.81680481 7.11011041 6221 269 0 1.00000000 1.00000000 1.00000000
H 0.34002549 31.14261953 7.19677508 6222 269 0 1.00000000 1.00000000 1.00000000
H 2.38448255 31.98619424 6.18882148 6223 269 0 1.00000000 1.00000000 1.00000000
H 2.95128986 31.46904981 7.74627311 6224 269 0 1.00000000 1.00000000 1.00000000
H 2.66594011 33.12479759 7.55667413 6225 269 0 1.00000000 1.00000000 1.00000000
C 15.45954579 29.66158618 4.81889893 6226 270 0 0.56500000 0.56500000 0.56500000
C 14.22274728 29.81994179 3.99253408 6227 270 0 0.56500000 0.56500000 0.56500000
C 14.10031167 30.87594267 2.94315343 6228 270 0 0.56500000 0.56500000 0.56500000
C 12.72543827 30.79561382 2.29948483 6229 270 0 0.56500000 0.56500000 0.56500000
C 11.60622751 31.08848880 3.27462762 6230 270 0 0.56500000 0.56500000 0.56500000
C 11.47332588 32.61426196 3.62794210 6231 270 0 0.56500000 0.56500000 0.56500000
C 10.30285121 33.13113610 4.37788047 6232 270 0 0.56500000 0.56500000 0.56500000
H 15.59004328 30.64196057 5.24298177 6233 270 0 1.00000000 1.00000000 1.00000000
H 16.27643762 29.45352992 4.18410664 6234 270 0 1.00000000 1.00000000 1.00000000
H 15.40268120 28.89084176 5.64413646 6235 270 0 1.00000000 1.00000000 1.00000000
H 13.27656578 30.08360916 4.60465624 6236 270 0 1.00000000 1.00000000 1.00000000
H 13.91684675 28.83682771 3.56947678 6237 270 0 1.00000000 1.00000000 1.00000000
H 14.87051748 30.80211413 2.05506436 6238 270 0 1.00000000 1.00000000 1.00000000
H 14.28460982 31.87766882 3.34953572 6239 270 0 1.00000000 1.00000000 1.00000000
H 12.56200324 29.84309754 1.85933035 6240 270 0 1.00000000 1.00000000 1.00000000
H 12.57626754 31.48115454 1.41905540 6241 270 0 1.00000000 1.00000000 1.00000000
H 11.68283372 30.52345358 4.17200559 6242 270 0 1.00000000 1.00000000 1.00000000
H 10.60007951 30.81498462 2.88282510 6243 270 0 1.00000000 1.00000000 1.00000000
H 11.62100687 33.01032591 2.70476239 6244 270 0 1.00000000 1.00000000 1.00000000
H 12.40569424 32.97965595 4.17603335 6245 270 0 1.00000000 1.00000000 1.00000000
H 10.38051349 32.82488004 5.43603947 6246 270 0 1.00000000 1.00000000 1.00000000
H 9.36522666 32.72706645 3.97943036 6247 270 0 1.00000000 1.00000000 1.00000000
H 10.23588801 34.21612481 4.38056420 6248 270 0 1.00000000 1.00000000 1.00000000
C 14.07070365 35.17793241 43.23061163 6249 271 0 0.56500000 0.56500000 0.56500000
C 14.60694252 34.18691544 42.17707634 6250 271 0 0.56500000 0.56500000 0.56500000
C 13.63957089 33.02264422 42.04307306 6251 271 0 0.56500000 0.56500000 0.56500000
C 14.37411076 31.96537616 41.20494283 6252 271 0 0.56500000 0.56500000 0.56500000
C 13.51227068 30.66117078 40.90696630 6253 271 0 0.56500000 0.56500000 0.56500000
C 14.27896610 29.66364190 40.09106315 6254 271 0 0.56500000 0.56500000 0.56500000
C 13.46686706 28.43298890 39.82004384 6255 271 0 0.56500000 0.56500000 0.56500000
H 14.78559670 35.96220265 43.40052939 6256 271 0 1.00000000 1.00000000 1.00000000
H 13.95400916 34.57357777 44.10030806 6257 271 0 1.00000000 1.00000000 1.00000000
H 13.23070520 35.77200870 42.86914808 6258 271 0 1.00000000 1.00000000 1.00000000
H 15.54464324 33.76888168 42.55500269 6259 271 0 1.00000000 1.00000000 1.00000000
H 14.85756456 34.70749291 41.24083955 6260 271 0 1.00000000 1.00000000 1.00000000
H 12.66364208 33.30735927 41.64960495 6261 271 0 1.00000000 1.00000000 1.00000000
H 13.31956694 32.56667501 43.01997869 6262 271 0 1.00000000 1.00000000 1.00000000
H 15.25436995 31.70034114 41.72879308 6263 271 0 1.00000000 1.00000000 1.00000000
H 14.81242549 32.48808039 40.29467117 6264 271 0 1.00000000 1.00000000 1.00000000
H 12.51916456 30.86440616 40.47010692 6265 271 0 1.00000000 1.00000000 1.00000000
H 13.31633690 30.15145052 41.87070605 6266 271 0 1.00000000 1.00000000 1.00000000
H 15.27037001 29.35739681 40.51365639 6267 271 0 1.00000000 1.00000000 1.00000000
H 14.63450596 30.17954727 39.19326710 6268 271 0 1.00000000 1.00000000 1.00000000
H 12.66330056 28.68548901 39.10407709 6269 271 0 1.00000000 1.00000000 1.00000000
H 12.93924813 28.02231605 40.70355115 6270 271 0 1.00000000 1.00000000 1.00000000
H 14.18459351 27.73713680 39.34214363 6271 271 0 1.00000000 1.00000000 1.00000000
C 23.94540497 26.35653100 -0.85558550 6272 272 0 0.56500000 0.56500000 0.56500000
C 22.44071308 26.04641888 -1.12134833 6273 272 0 0.56500000 0.56500000 0.56500000
C 21.69086198 27.17986820 -1.84594337 6274 272 0 0.56500000 0.56500000 0.56500000
C 20.86158971 27.87620664 -0.86872713 6275 272 0 0.56500000 0.56500000 0.56500000
C 20.32571380 29.26859973 -1.23912673 6276 272 0 0.56500000 0.56500000 0.56500000
C 20.01198204 29.36387629 -2.71494209 6277 272 0 0.56500000 0.56500000 0.56500000
C 19.28319476 30.69246657 -2.98248268 6278 272 0 0.56500000 0.56500000 0.56500000
H 24.43554810 25.45739080 -0.70780834 6279 272 0 1.00000000 1.00000000 1.00000000
H 24.11121675 27.14245221 -0.04377084 6280 272 0 1.00000000 1.00000000 1.00000000
H 24.40148122 26.66944262 -1.82676541 6281 272 0 1.00000000 1.00000000 1.00000000
H 21.97010401 25.81271143 -0.12902322 6282 272 0 1.00000000 1.00000000 1.00000000
H 22.36839692 25.13523747 -1.67996829 6283 272 0 1.00000000 1.00000000 1.00000000
H 21.16084454 26.90376463 -2.72598712 6284 272 0 1.00000000 1.00000000 1.00000000
H 22.39016926 27.90407173 -2.21878824 6285 272 0 1.00000000 1.00000000 1.00000000
H 21.52010170 28.11241741 0.07349684 6286 272 0 1.00000000 1.00000000 1.00000000
H 20.08425815 27.19243825 -0.54061148 6287 272 0 1.00000000 1.00000000 1.00000000
H 21.02514694 30.04760809 -1.20945009 6288 272 0 1.00000000 1.00000000 1.00000000
H 19.49837923 29.52001909 -0.53876520 6289 272 0 1.00000000 1.00000000 1.00000000
H 19.48620778 28.42015893 -3.05232283 6290 272 0 1.00000000 1.00000000 1.00000000
H 20.96770792 29.38353732 -3.28926883 6291 272 0 1.00000000 1.00000000 1.00000000
H 18.84524859 30.74819870 -3.94262380 6292 272 0 1.00000000 1.00000000 1.00000000
H 19.99249757 31.51710658 -2.97115195 6293 272 0 1.00000000 1.00000000 1.00000000
H 18.48972269 30.84480711 -2.28101778 6294 272 0 1.00000000 1.00000000 1.00000000
C 40.76391130 36.29991062 14.61690593 6295 273 0 0.56500000 0.56500000 0.56500000
C 41.66132123 35.05136875 14.57223759 6296 273 0 0.56500000 0.56500000 0.56500000
C 42.99224599 35.33411172 13.82587628 6297 273 0 0.56500000 0.56500000 0.56500000
C 43.85602209 34.06583164 13.65827538 6298 273 0 0.56500000 0.56500000 0.56500000
C 44.95194669 34.29797847 12.51687915 6299 273 0 0.56500000 0.56500000 0.56500000
C 45.99924781 33.17133489 12.27783234 6300 273 0 0.56500000 0.56500000 0.56500000
C 46.90215260 33.48513828 11.11460179 6301 273 0 0.56500000 0.56500000 0.56500000
H 40.33746727 36.61366943 13.68875342 6302 273 0 1.00000000 1.00000000 1.00000000
H 41.45738323 37.11511192 14.91596336 6303 273 0 1.00000000 1.00000000 1.00000000
H 40.00494509 36.26169782 15.45149421 6304 273 0 1.00000000 1.00000000 1.00000000
H 41.17654961 34.31726933 13.99298781 6305 273 0 1.00000000 1.00000000 1.00000000
H 41.79220539 34.63710421 15.60608867 6306 273 0 1.00000000 1.00000000 1.00000000
H 43.56853580 36.14330182 14.41162301 6307 273 0 1.00000000 1.00000000 1.00000000
H 42.85236617 35.73423519 12.81322600 6308 273 0 1.00000000 1.00000000 1.00000000
H 43.10077916 33.24504585 13.55324991 6309 273 0 1.00000000 1.00000000 1.00000000
H 44.38684745 33.86672559 14.56578907 6310 273 0 1.00000000 1.00000000 1.00000000
H 45.45580630 35.22176579 12.79263510 6311 273 0 1.00000000 1.00000000 1.00000000
H 44.47940549 34.47348912 11.53105086 6312 273 0 1.00000000 1.00000000 1.00000000
H 45.44369079 32.17966355 12.31585008 6313 273 0 1.00000000 1.00000000 1.00000000
H 46.53828423 33.17708602 13.21873791 6314 273 0 1.00000000 1.00000000 1.00000000
H 47.39018347 34.46318173 11.36357713 6315 273 0 1.00000000 1.00000000 1.00000000
H 46.29398076 33.90560459 10.27183683 6316 273 0 1.00000000 1.00000000 1.00000000
H 47.47016525 32.57434319 10.86012242 6317 273 0 1.00000000 1.00000000 1.00000000
C 32.33995370 19.73624164 9.39834475 6318 274 0 0.56500000 0.56500000 0.56500000
C 32.12240800 19.46656105 7.86402025 6319 274 0 0.56500000 0.56500000 0.56500000
C 30.87780803 18.64855419 7.64889536 6320 274 0 0.56500000 0.56500000 0.56500000
C 29.55671821 19.11763434 8.24879689 6321 274 0 0.56500000 0.56500000 0.56500000
C 28.40643913 18.22455088 7.74227139 6322 274 0 0.56500000 0.56500000 0.56500000
C 28.65802299 16.70677488 7.79794170 6323 274 0 0.56500000 0.56500000 0.56500000
C 27.32324660 15.88863056 7.70456996 6324 274 0 0.56500000 0.56500000 0.56500000
H 33.14488977 20.43430420 9.52428789 6325 274 0 1.00000000 1.00000000 1.00000000
H 32.60162390 18.79361548 9.92822037 6326 274 0 1.00000000 1.00000000 1.00000000
H 31.50173405 20.20013243 9.94726665 6327 274 0 1.00000000 1.00000000 1.00000000
H 32.99964373 19.00075013 7.40514920 6328 274 0 1.00000000 1.00000000 1.00000000
H 31.98405826 20.45038605 7.32912530 6329 274 0 1.00000000 1.00000000 1.00000000
H 31.21107410 17.63242860 7.95442626 6330 274 0 1.00000000 1.00000000 1.00000000
H 30.76351756 18.37754862 6.57249423 6331 274 0 1.00000000 1.00000000 1.00000000
H 29.29609516 20.18577327 7.90013372 6332 274 0 1.00000000 1.00000000 1.00000000
H 29.50006115 19.06339633 9.35109408 6333 274 0 1.00000000 1.00000000 1.00000000
H 28.17364101 18.41626334 6.71161678 6334 274 0 1.00000000 1.00000000 1.00000000
H 27.47827129 18.53884367 8.31753829 6335 274 0 1.00000000 1.00000000 1.00000000
H 29.09586408 16.32513102 8.72401902 6336 274 0 1.00000000 1.00000000 1.00000000
H 29.32177228 16.37704675 6.95915305 6337 274 0 1.00000000 1.00000000 1.00000000
H 27.57503762 14.81445810 7.87914626 6338 274 0 1.00000000 1.00000000 1.00000000
H 26.91452969 15.88593589 6.64362295 6339 274 0 1.00000000 1.00000000 1.00000000
H 26.61911268 16.20714285 8.56262302 6340 274 0 1.00000000 1.00000000 1.00000000
C 11.67688540 44.30491662 17.82161921 6341 275 0 0.56500000 0.56500000 0.56500000
C 12.00992256 43.27150286 18.87638446 6342 275 0 0.56500000 0.56500000 0.56500000
C 11.29416419 41.92432219 18.57684403 6343 275 0 0.56500000 0.56500000 0.56500000
C 11.51287072 40.78848910 19.60435988 6344 275 0 0.56500000 0.56500000 0.56500000
C 10.60938453 39.60361232 19.26230648 6345 275 0 0.56500000 0.56500000 0.56500000
C 9.05942244 39.77014506 19.37502020 6346 275 0 0.56500000 0.56500000 0.56500000
C 8.30006372 38.48324338 19.14223672 6347 275 0 0.56500000 0.56500000 0.56500000
H 10.58571121 44.52947481 17.71602017 6348 275 0 1.00000000 1.00000000 1.00000000
H 12.00201705 44.00948243 16.80560009 6349 275 0 1.00000000 1.00000000 1.00000000
H 12.12154186 45.30794087 17.92144474 6350 275 0 1.00000000 1.00000000 1.00000000
H 11.53053236 43.66581814 19.77536121 6351 275 0 1.00000000 1.00000000 1.00000000
H 13.07545252 43.08397132 19.16459735 6352 275 0 1.00000000 1.00000000 1.00000000
H 11.73120400 41.50020607 17.57575681 6353 275 0 1.00000000 1.00000000 1.00000000
H 10.26120467 41.96857669 18.28872058 6354 275 0 1.00000000 1.00000000 1.00000000
H 11.27914811 41.15592520 20.55649624 6355 275 0 1.00000000 1.00000000 1.00000000
H 12.55400298 40.45706675 19.64753292 6356 275 0 1.00000000 1.00000000 1.00000000
H 10.91892989 38.82359042 19.92679557 6357 275 0 1.00000000 1.00000000 1.00000000
H 10.74057525 39.34685432 18.26389964 6358 275 0 1.00000000 1.00000000 1.00000000
H 8.64844192 40.56331301 18.71223814 6359 275 0 1.00000000 1.00000000 1.00000000
H 8.93147919 40.07106972 20.46083063 6360 275 0 1.00000000 1.00000000 1.00000000
H 8.21352219 38.31225333 18.09260983 6361 275 0 1.00000000 1.00000000 1.00000000
H 7.25008551 38.41538583 19.38671754 6362 275 0 1.00000000 1.00000000 1.00000000
H 8.76985154 37.56538997 19.53902914 6363 275 0 1.00000000 1.00000000 1.00000000
C 11.77980582 24.34232529 9.09072868 6364 276 0 0.56500000 0.56500000 0.56500000
C 12.13096503 24.44896089 10.58790902 6365 276 0 0.56500000 0.56500000 0.56500000
C 12.89961797 25.71305447 10.89882673 6366 276 0 0.56500000 0.56500000 0.56500000
C 14.23256859 25.96860332 10.25316054 6367 276 0 0.56500000 0.56500000 0.56500000
C 14.91799444 27.24572738 10.77941751 6368 276 0 0.56500000 0.56500000 0.56500000
C 16.29257341 27.49073248 10.26386447 6369 276 0 0.56500000 0.56500000 0.56500000
C 16.45063153 27.45030307 8.76805986 6370 276 0 0.56500000 0.56500000 0.56500000
H 11.32586967 23.34890466 8.85558662 6371 276 0 1.00000000 1.00000000 1.00000000
H 12.63369638 24.47393423 8.40065004 6372 276 0 1.00000000 1.00000000 1.00000000
H 11.03997990 25.16127978 8.89115723 6373 276 0 1.00000000 1.00000000 1.00000000
H 12.68553575 23.60279264 10.95676975 6374 276 0 1.00000000 1.00000000 1.00000000
H 11.22047051 24.54261868 11.19544968 6375 276 0 1.00000000 1.00000000 1.00000000
H 13.04154918 25.59179453 12.04402181 6376 276 0 1.00000000 1.00000000 1.00000000
H 12.16652144 26.54942521 10.74462576 6377 276 0 1.00000000 1.00000000 1.00000000
H 14.19806612 26.15710445 9.18289835 6378 276 0 1.00000000 1.00000000 1.00000000
H 15.06294315 25.19899484 10.44176363 6379 276 0 1.00000000 1.00000000 1.00000000
H 14.91419031 27.20753189 11.83177559 6380 276 0 1.00000000 1.00000000 1.00000000
H 14.34585619 28.21573427 10.45456253 6381 276 0 1.00000000 1.00000000 1.00000000
H 17.05349926 26.75954948 10.67017051 6382 276 0 1.00000000 1.00000000 1.00000000
H 16.59459320 28.49749717 10.51822126 6383 276 0 1.00000000 1.00000000 1.00000000
H 15.91358667 28.15355984 8.21512368 6384 276 0 1.00000000 1.00000000 1.00000000
H 16.19155844 26.49943023 8.33312978 6385 276 0 1.00000000 1.00000000 1.00000000
H 17.50674125 27.55803334 8.49393767 6386 276 0 1.00000000 1.00000000 1.00000000
C 14.63620459 38.91728010 40.84360939 6387 277 0 0.56500000 0.56500000 0.56500000
C 14.11231053 39.19014727 42.28120321 6388 277 0 0.56500000 0.56500000 0.56500000
C 12.62989193 38.86037141 42.39431610 6389 277 0 0.56500000 0.56500000 0.56500000
C 11.64379740 39.92633944 42.26069029 6390 277 0 0.56500000 0.56500000 0.56500000
C 10.25995598 39.38273087 41.96627363 6391 277 0 0.56500000 0.56500000 0.56500000
C 9.13366973 40.36162546 42.07008469 6392 277 0 0.56500000 0.56500000 0.56500000
C 9.34951294 41.59195738 41.11857989 6393 277 0 0.56500000 0.56500000 0.56500000
H 14.79698986 37.90830855 40.63657754 6394 277 0 1.00000000 1.00000000 1.00000000
H 15.59710084 39.38281731 40.65807636 6395 277 0 1.00000000 1.00000000 1.00000000
H 13.97566800 39.25339616 40.07475870 6396 277 0 1.00000000 1.00000000 1.00000000
H 14.46729918 40.10842461 42.61931682 6397 277 0 1.00000000 1.00000000 1.00000000
H 14.63307739 38.48305601 42.84741982 6398 277 0 1.00000000 1.00000000 1.00000000
H 12.51318282 38.34228427 43.36773593 6399 277 0 1.00000000 1.00000000 1.00000000
H 12.48277115 38.04845213 41.68405100 6400 277 0 1.00000000 1.00000000 1.00000000
H 11.95771722 40.45651261 41.35296200 6401 277 0 1.00000000 1.00000000 1.00000000
H 11.64578367 40.61194160 43.12154818 6402 277 0 1.00000000 1.00000000 1.00000000
H 9.99522210 38.45117430 42.59946913 6403 277 0 1.00000000 1.00000000 1.00000000
H 10.26063898 38.87571143 40.95045321 6404 277 0 1.00000000 1.00000000 1.00000000
H 9.01593298 40.70494854 43.12894371 6405 277 0 1.00000000 1.00000000 1.00000000
H 8.20437963 39.90709470 41.71072669 6406 277 0 1.00000000 1.00000000 1.00000000
H 9.59224244 41.23571918 40.10869386 6407 277 0 1.00000000 1.00000000 1.00000000
H 10.09655966 42.28126667 41.52693499 6408 277 0 1.00000000 1.00000000 1.00000000
H 8.41623684 42.15692499 41.05135582 6409 277 0 1.00000000 1.00000000 1.00000000
C 24.90086794 4.13617590 4.53549678 6410 278 0 0.56500000 0.56500000 0.56500000
C 24.09761627 5.42447159 4.63737671 6411 278 0 0.56500000 0.56500000 0.56500000
C 24.09076545 5.98963912 6.03880731 6412 278 0 0.56500000 0.56500000 0.56500000
C 23.27734643 7.24337448 6.32125106 6413 278 0 0.56500000 0.56500000 0.56500000
C 23.06435278 7.63054633 7.79081190 6414 278 0 0.56500000 0.56500000 0.56500000
C 21.97179859 8.65725841 8.03215308 6415 278 0 0.56500000 0.56500000 0.56500000
C 20.57805369 8.05085510 7.97604998 6416 278 0 0.56500000 0.56500000 0.56500000
H 25.90258725 4.25589215 4.97108883 6417 278 0 1.00000000 1.00000000 1.00000000
H 24.96829987 3.95238370 3.48156819 6418 278 0 1.00000000 1.00000000 1.00000000
H 24.42609721 3.28536964 5.04176153 6419 278 0 1.00000000 1.00000000 1.00000000
H 23.13643497 5.16123330 4.25296965 6420 278 0 1.00000000 1.00000000 1.00000000
H 24.47904658 6.13473474 3.87980654 6421 278 0 1.00000000 1.00000000 1.00000000
H 25.15967643 6.17614803 6.24558008 6422 278 0 1.00000000 1.00000000 1.00000000
H 23.71860234 5.17542588 6.73451316 6423 278 0 1.00000000 1.00000000 1.00000000
H 22.32030366 7.11149472 5.81587614 6424 278 0 1.00000000 1.00000000 1.00000000
H 23.66851902 8.19227898 5.90252633 6425 278 0 1.00000000 1.00000000 1.00000000
H 24.04939766 7.97481316 8.16672351 6426 278 0 1.00000000 1.00000000 1.00000000
H 22.89090558 6.69826689 8.33177924 6427 278 0 1.00000000 1.00000000 1.00000000
H 22.02315332 9.53650462 7.34827192 6428 278 0 1.00000000 1.00000000 1.00000000
H 22.09666044 9.04581644 9.05039192 6429 278 0 1.00000000 1.00000000 1.00000000
H 20.29081452 7.48833903 7.08155448 6430 278 0 1.00000000 1.00000000 1.00000000
H 19.87241769 8.90189186 8.01693568 6431 278 0 1.00000000 1.00000000 1.00000000
H 20.32977461 7.46804089 8.90112469 6432 278 0 1.00000000 1.00000000 1.00000000
C 26.97915882 30.21294595 8.89864328 6433 279 0 0.56500000 0.56500000 0.56500000
C 26.35195793 31.59901279 8.61678619 6434 279 0 0.56500000 0.56500000 0.56500000
C 26.34257193 31.85934846 7.14935173 6435 279 0 0.56500000 0.56500000 0.56500000
C 25.44265987 31.09675089 6.19696853 6436 279 0 0.56500000 0.56500000 0.56500000
C 25.25150524 31.80007332 4.83008783 6437 279 0 0.56500000 0.56500000 0.56500000
C 24.26917861 33.05566536 4.95123354 6438 279 0 0.56500000 0.56500000 0.56500000
C 22.82885243 32.64056218 5.36159021 6439 279 0 0.56500000 0.56500000 0.56500000
H 27.55655361 30.20751007 9.80055817 6440 279 0 1.00000000 1.00000000 1.00000000
H 27.79533115 29.98677620 8.11828092 6441 279 0 1.00000000 1.00000000 1.00000000
H 26.29333498 29.38201351 8.85729172 6442 279 0 1.00000000 1.00000000 1.00000000
H 27.07456281 32.35090205 9.11817588 6443 279 0 1.00000000 1.00000000 1.00000000
H 25.29465636 31.81373322 9.02675346 6444 279 0 1.00000000 1.00000000 1.00000000
H 27.30745105 31.92549364 6.63986491 6445 279 0 1.00000000 1.00000000 1.00000000
H 26.05152020 32.91130828 7.02361428 6446 279 0 1.00000000 1.00000000 1.00000000
H 24.50112617 30.95162115 6.66640411 6447 279 0 1.00000000 1.00000000 1.00000000
H 25.76045155 30.05425490 5.93657606 6448 279 0 1.00000000 1.00000000 1.00000000
H 24.79857273 31.09093909 4.09828412 6449 279 0 1.00000000 1.00000000 1.00000000
H 26.22451087 32.09221677 4.45992865 6450 279 0 1.00000000 1.00000000 1.00000000
H 24.25216791 33.57383361 3.98166050 6451 279 0 1.00000000 1.00000000 1.00000000
H 24.61711125 33.73068282 5.78323761 6452 279 0 1.00000000 1.00000000 1.00000000
H 22.31942607 33.58054741 5.31561306 6453 279 0 1.00000000 1.00000000 1.00000000
H 22.76265525 32.24569732 6.46030256 6454 279 0 1.00000000 1.00000000 1.00000000
H 22.24316889 31.97200081 4.71535569 6455 279 0 1.00000000 1.00000000 1.00000000
C 17.52418112 17.50347045 11.14821974 6456 280 0 0.56500000 0.56500000 0.56500000
C 16.96588076 16.07103297 11.10159813 6457 280 0 0.56500000 0.56500000 0.56500000
C 17.85770821 15.12895084 11.87408052 6458 280 0 0.56500000 0.56500000 0.56500000
C 17.50194852 13.68408671 12.03980691 6459 280 0 0.56500000 0.56500000 0.56500000
C 17.93801390 12.77207245 10.90208973 6460 280 0 0.56500000 0.56500000 0.56500000
C 17.54465905 11.27524276 11.04305104 6461 280 0 0.56500000 0.56500000 0.56500000
C 17.78116700 10.31328936 9.88465633 6462 280 0 0.56500000 0.56500000 0.56500000
H 18.46158414 17.65047639 10.55890617 6463 280 0 1.00000000 1.00000000 1.00000000
H 17.62415500 17.80629650 12.21188823 6464 280 0 1.00000000 1.00000000 1.00000000
H 16.97484217 18.24765304 10.54498258 6465 280 0 1.00000000 1.00000000 1.00000000
H 16.73951262 15.82617718 10.05778621 6466 280 0 1.00000000 1.00000000 1.00000000
H 16.02264644 16.17235164 11.59884368 6467 280 0 1.00000000 1.00000000 1.00000000
H 18.08162380 15.53760343 12.89415397 6468 280 0 1.00000000 1.00000000 1.00000000
H 18.94037171 15.13085910 11.37115598 6469 280 0 1.00000000 1.00000000 1.00000000
H 16.38373701 13.54468004 12.08975158 6470 280 0 1.00000000 1.00000000 1.00000000
H 17.82434227 13.30243897 12.99491293 6471 280 0 1.00000000 1.00000000 1.00000000
H 19.04048483 12.89653291 10.74774671 6472 280 0 1.00000000 1.00000000 1.00000000
H 17.44264441 13.03631539 9.97357717 6473 280 0 1.00000000 1.00000000 1.00000000
H 16.44704735 11.27502479 11.27636276 6474 280 0 1.00000000 1.00000000 1.00000000
H 18.02570876 10.90475186 11.93937016 6475 280 0 1.00000000 1.00000000 1.00000000
H 17.00760472 10.43927021 9.13439993 6476 280 0 1.00000000 1.00000000 1.00000000
H 17.88290383 9.23469156 10.15774443 6477 280 0 1.00000000 1.00000000 1.00000000
H 18.72511665 10.62859180 9.42493525 6478 280 0 1.00000000 1.00000000 1.00000000
C 1.68742292 46.89200106 31.80669709 6479 281 0 0.56500000 0.56500000 0.56500000
C 0.85290257 45.98938160 30.91145929 6480 281 0 0.56500000 0.56500000 0.56500000
C 1.61777696 45.12782922 29.82204041 6481 281 0 0.56500000 0.56500000 0.56500000
C 2.39729994 43.92510555 30.44907236 6482 281 0 0.56500000 0.56500000 0.56500000
C 1.57681437 42.74425905 30.81696524 6483 281 0 0.56500000 0.56500000 0.56500000
C 2.49033729 41.67357770 31.57358147 6484 281 0 0.56500000 0.56500000 0.56500000
C 1.88256118 40.34936782 31.94199250 6485 281 0 0.56500000 0.56500000 0.56500000
H 2.38555534 47.50148447 31.16279082 6486 281 0 1.00000000 1.00000000 1.00000000
H 2.35345662 46.34770677 32.54083335 6487 281 0 1.00000000 1.00000000 1.00000000
H 1.18672913 47.59422084 32.47749497 6488 281 0 1.00000000 1.00000000 1.00000000
H 0.04785084 46.59748576 30.37507205 6489 281 0 1.00000000 1.00000000 1.00000000
H 0.25345761 45.30823569 31.55316332 6490 281 0 1.00000000 1.00000000 1.00000000
H 2.34157035 45.67276142 29.11252968 6491 281 0 1.00000000 1.00000000 1.00000000
H 0.74864537 44.68497036 29.22240928 6492 281 0 1.00000000 1.00000000 1.00000000
H 2.87463442 44.30789705 31.30839737 6493 281 0 1.00000000 1.00000000 1.00000000
H 3.20137244 43.52799672 29.74505436 6494 281 0 1.00000000 1.00000000 1.00000000
H 1.23437602 42.26024544 29.94121687 6495 281 0 1.00000000 1.00000000 1.00000000
H 0.76361330 43.03734075 31.47000508 6496 281 0 1.00000000 1.00000000 1.00000000
H 3.04915958 42.11555703 32.40893459 6497 281 0 1.00000000 1.00000000 1.00000000
H 3.34176261 41.62265746 30.88593590 6498 281 0 1.00000000 1.00000000 1.00000000
H 2.57913062 39.86512615 32.66979641 6499 281 0 1.00000000 1.00000000 1.00000000
H 1.85242371 39.59543156 31.13616292 6500 281 0 1.00000000 1.00000000 1.00000000
H 0.86376291 40.46838922 32.33643049 6501 281 0 1.00000000 1.00000000 1.00000000
C 29.96248901 48.87939941 -4.19501520 6502 282 0 0.56500000 0.56500000 0.56500000
C 30.03985897 47.39775904 -4.29769830 6503 282 0 0.56500000 0.56500000 0.56500000
C 31.28486326 46.79284099 -3.56940280 6504 282 0 0.56500000 0.56500000 0.56500000
C 31.32310255 45.26579516 -3.52436263 6505 282 0 0.56500000 0.56500000 0.56500000
C 32.57214925 44.49418982 -3.07581752 6506 282 0 0.56500000 0.56500000 0.56500000
C 32.12116451 43.05444995 -2.68846073 6507 282 0 0.56500000 0.56500000 0.56500000
C 33.32075260 42.06320339 -2.73356427 6508 282 0 0.56500000 0.56500000 0.56500000
H 29.03167045 49.31973985 -4.56558107 6509 282 0 1.00000000 1.00000000 1.00000000
H 30.76769465 49.40853856 -4.76599561 6510 282 0 1.00000000 1.00000000 1.00000000
H 30.06550604 49.11467879 -3.09651013 6511 282 0 1.00000000 1.00000000 1.00000000
H 30.04585344 47.07375158 -5.33291296 6512 282 0 1.00000000 1.00000000 1.00000000
H 29.11623410 46.94686666 -3.84560879 6513 282 0 1.00000000 1.00000000 1.00000000
H 31.24748631 47.09876852 -2.52234311 6514 282 0 1.00000000 1.00000000 1.00000000
H 32.20237509 47.10128517 -4.04117151 6515 282 0 1.00000000 1.00000000 1.00000000
H 31.06861476 44.88187156 -4.56033012 6516 282 0 1.00000000 1.00000000 1.00000000
H 30.47359468 44.98031500 -2.92929419 6517 282 0 1.00000000 1.00000000 1.00000000
H 33.05918744 45.05047336 -2.21278802 6518 282 0 1.00000000 1.00000000 1.00000000
H 33.27156273 44.40125206 -3.88985286 6519 282 0 1.00000000 1.00000000 1.00000000
H 31.24249406 42.70984474 -3.36501953 6520 282 0 1.00000000 1.00000000 1.00000000
H 31.62243144 43.05200956 -1.65976240 6521 282 0 1.00000000 1.00000000 1.00000000
H 32.90001995 41.10407083 -2.48699840 6522 282 0 1.00000000 1.00000000 1.00000000
H 34.16651847 42.39064074 -2.07347303 6523 282 0 1.00000000 1.00000000 1.00000000
H 33.75936801 42.11727600 -3.75630475 6524 282 0 1.00000000 1.00000000 1.00000000
C 11.08444937 32.10970274 20.11828485 6525 283 0 0.56500000 0.56500000 0.56500000
C 11.07060125 31.59448237 18.73374117 6526 283 0 0.56500000 0.56500000 0.56500000
C 11.57358202 30.20500191 18.56500804 6527 283 0 0.56500000 0.56500000 0.56500000
C 12.09727080 29.90178287 17.14326173 6528 283 0 0.56500000 0.56500000 0.56500000
C 12.72037870 28.56824403 16.94170055 6529 283 0 0.56500000 0.56500000 0.56500000
C 13.46222702 28.46307297 15.56444370 6530 283 0 0.56500000 0.56500000 0.56500000
C 12.58761347 28.43410569 14.32290020 6531 283 0 0.56500000 0.56500000 0.56500000
H 10.38237135 31.50221418 20.79006432 6532 283 0 1.00000000 1.00000000 1.00000000
H 10.77094055 33.15392770 20.16296698 6533 283 0 1.00000000 1.00000000 1.00000000
H 12.10681128 32.02084038 20.59349313 6534 283 0 1.00000000 1.00000000 1.00000000
H 11.70578700 32.13292711 18.08165300 6535 283 0 1.00000000 1.00000000 1.00000000
H 10.05118321 31.70897118 18.34548583 6536 283 0 1.00000000 1.00000000 1.00000000
H 10.74977548 29.53185810 18.75812850 6537 283 0 1.00000000 1.00000000 1.00000000
H 12.44915530 30.01141268 19.26940134 6538 283 0 1.00000000 1.00000000 1.00000000
H 12.88506572 30.69058388 16.96743327 6539 283 0 1.00000000 1.00000000 1.00000000
H 11.29883960 30.07080012 16.36787774 6540 283 0 1.00000000 1.00000000 1.00000000
H 11.86712605 27.79342412 16.90469286 6541 283 0 1.00000000 1.00000000 1.00000000
H 13.34264946 28.19118032 17.73898313 6542 283 0 1.00000000 1.00000000 1.00000000
H 14.14138644 27.59427016 15.56390505 6543 283 0 1.00000000 1.00000000 1.00000000
H 14.13791469 29.32719719 15.52629113 6544 283 0 1.00000000 1.00000000 1.00000000
H 12.00188767 29.31214807 14.23989041 6545 283 0 1.00000000 1.00000000 1.00000000
H 11.99610752 27.55178773 14.21948537 6546 283 0 1.00000000 1.00000000 1.00000000
H 13.25793020 28.36032783 13.48816040 6547 283 0 1.00000000 1.00000000 1.00000000
C 15.16413193 21.11109464 28.95508957 6548 284 0 0.56500000 0.56500000 0.56500000
C 14.83932522 22.42978835 29.68503170 6549 284 0 0.56500000 0.56500000 0.56500000
C 15.30235727 23.61887542 28.81075125 6550 284 0 0.56500000 0.56500000 0.56500000
C 14.45231991 24.02121250 27.58446337 6551 284 0 0.56500000 0.56500000 0.56500000
C 15.07806499 25.22303597 26.83165468 6552 284 0 0.56500000 0.56500000 0.56500000
C 14.77027648 26.66514546 27.37061164 6553 284 0 0.56500000 0.56500000 0.56500000
C 15.11497495 26.85884570 28.89804137 6554 284 0 0.56500000 0.56500000 0.56500000
H 16.29714464 20.81448127 28.92674159 6555 284 0 1.00000000 1.00000000 1.00000000
H 14.91262275 21.16606594 27.88310519 6556 284 0 1.00000000 1.00000000 1.00000000
H 14.72072941 20.18874031 29.39493271 6557 284 0 1.00000000 1.00000000 1.00000000
H 15.41196684 22.38886826 30.61356231 6558 284 0 1.00000000 1.00000000 1.00000000
H 13.74631648 22.52657269 29.72213437 6559 284 0 1.00000000 1.00000000 1.00000000
H 16.27541605 23.36279435 28.40109539 6560 284 0 1.00000000 1.00000000 1.00000000
H 15.42314141 24.58699204 29.31947023 6561 284 0 1.00000000 1.00000000 1.00000000
H 13.41633610 24.26023690 27.84209235 6562 284 0 1.00000000 1.00000000 1.00000000
H 14.35690572 23.18084174 26.90087544 6563 284 0 1.00000000 1.00000000 1.00000000
H 14.87744317 25.23713214 25.73800621 6564 284 0 1.00000000 1.00000000 1.00000000
H 16.18052184 25.06523783 26.84865710 6565 284 0 1.00000000 1.00000000 1.00000000
H 13.71951523 26.91502060 27.20206731 6566 284 0 1.00000000 1.00000000 1.00000000
H 15.37324564 27.43545626 26.91954563 6567 284 0 1.00000000 1.00000000 1.00000000
H 14.42371398 26.40748192 29.58633836 6568 284 0 1.00000000 1.00000000 1.00000000
H 15.21399511 27.96278512 29.09756049 6569 284 0 1.00000000 1.00000000 1.00000000
H 16.15347067 26.51117673 29.10821473 6570 284 0 1.00000000 1.00000000 1.00000000
C 21.62070529 18.14492810 1.74314000 6571 285 0 0.56500000 0.56500000 0.56500000
C 22.07051273 17.81111098 3.14893616 6572 285 0 0.56500000 0.56500000 0.56500000
C 23.27528847 18.71257400 3.46048678 6573 285 0 0.56500000 0.56500000 0.56500000
C 24.02125841 18.45094854 4.78217525 6574 285 0 0.56500000 0.56500000 0.56500000
C 23.38193318 19.19216924 5.96337852 6575 285 0 0.56500000 0.56500000 0.56500000
C 23.64757248 20.65362887 6.07610567 6576 285 0 0.56500000 0.56500000 0.56500000
C 22.71762598 21.46196292 6.88172859 6577 285 0 0.56500000 0.56500000 0.56500000
H 22.47100850 17.74500507 1.18957290 6578 285 0 1.00000000 1.00000000 1.00000000
H 21.50283281 19.22129084 1.47004677 6579 285 0 1.00000000 1.00000000 1.00000000
H 20.68747609 17.64763529 1.56171451 6580 285 0 1.00000000 1.00000000 1.00000000
H 22.28930873 16.75991770 3.17548960 6581 285 0 1.00000000 1.00000000 1.00000000
H 21.20720718 17.99941474 3.83147654 6582 285 0 1.00000000 1.00000000 1.00000000
H 22.90984568 19.72076382 3.61216866 6583 285 0 1.00000000 1.00000000 1.00000000
H 24.05694185 18.52143685 2.71922529 6584 285 0 1.00000000 1.00000000 1.00000000
H 25.09276439 18.81290401 4.69674296 6585 285 0 1.00000000 1.00000000 1.00000000
H 24.05594292 17.32916957 4.91016296 6586 285 0 1.00000000 1.00000000 1.00000000
H 23.64269485 18.60525309 6.84603409 6587 285 0 1.00000000 1.00000000 1.00000000
H 22.31108062 19.10057420 5.84543717 6588 285 0 1.00000000 1.00000000 1.00000000
H 23.79245012 21.04715483 5.05156115 6589 285 0 1.00000000 1.00000000 1.00000000
H 24.63449517 20.74302234 6.46871130 6590 285 0 1.00000000 1.00000000 1.00000000
H 22.90652140 22.52623886 6.70077986 6591 285 0 1.00000000 1.00000000 1.00000000
H 22.66368035 21.34821053 7.98985092 6592 285 0 1.00000000 1.00000000 1.00000000
H 21.69229159 21.28410010 6.55259712 6593 285 0 1.00000000 1.00000000 1.00000000
C 32.30677564 28.23409003 0.37732433 6594 286 0 0.56500000 0.56500000 0.56500000
C 33.39423714 28.40266746 1.39490034 6595 286 0 0.56500000 0.56500000 0.56500000
C 34.25874347 29.64065647 1.31130008 6596 286 0 0.56500000 0.56500000 0.56500000
C 35.18922894 29.78428176 2.49066547 6597 286 0 0.56500000 0.56500000 0.56500000
C 35.96954127 31.08893771 2.49215411 6598 286 0 0.56500000 0.56500000 0.56500000
C 35.18855324 32.40406298 2.48246979 6599 286 0 0.56500000 0.56500000 0.56500000
C 34.19541667 32.47774005 3.60689549 6600 286 0 0.56500000 0.56500000 0.56500000
H 31.55851888 27.46256244 0.51313219 6601 286 0 1.00000000 1.00000000 1.00000000
H 32.64538807 28.13807220 -0.64909780 6602 286 0 1.00000000 1.00000000 1.00000000
H 31.73041004 29.13545573 0.37959588 6603 286 0 1.00000000 1.00000000 1.00000000
H 34.06098836 27.50891223 1.39990298 6604 286 0 1.00000000 1.00000000 1.00000000
H 33.00043870 28.38311983 2.43077629 6605 286 0 1.00000000 1.00000000 1.00000000
H 33.58874925 30.47797071 1.35482099 6606 286 0 1.00000000 1.00000000 1.00000000
H 34.71910588 29.61466732 0.34677860 6607 286 0 1.00000000 1.00000000 1.00000000
H 36.03099611 29.08625343 2.47771079 6608 286 0 1.00000000 1.00000000 1.00000000
H 34.59091241 29.69698474 3.41696074 6609 286 0 1.00000000 1.00000000 1.00000000
H 36.62545145 30.99868616 1.61767559 6610 286 0 1.00000000 1.00000000 1.00000000
H 36.61861177 31.03953115 3.35678828 6611 286 0 1.00000000 1.00000000 1.00000000
H 34.68554613 32.64758683 1.59354544 6612 286 0 1.00000000 1.00000000 1.00000000
H 35.81178359 33.27788024 2.53774264 6613 286 0 1.00000000 1.00000000 1.00000000
H 33.68372805 33.37612922 3.76493073 6614 286 0 1.00000000 1.00000000 1.00000000
H 34.69141490 32.20664436 4.53784744 6615 286 0 1.00000000 1.00000000 1.00000000
H 33.50408925 31.67206866 3.42924726 6616 286 0 1.00000000 1.00000000 1.00000000
C 4.32975454 7.53383646 5.31290026 6617 287 0 0.56500000 0.56500000 0.56500000
C 4.76364634 8.08575109 6.72448631 6618 287 0 0.56500000 0.56500000 0.56500000
C 3.62215013 8.47722429 7.73663973 6619 287 0 0.56500000 0.56500000 0.56500000
C 4.20159691 9.08416804 8.95559948 6620 287 0 0.56500000 0.56500000 0.56500000
C 3.15698461 9.27449332 10.02108561 6621 287 0 0.56500000 0.56500000 0.56500000
C 3.69374179 9.71539727 11.38250803 6622 287 0 0.56500000 0.56500000 0.56500000
C 4.10265111 11.21252133 11.39807807 6623 287 0 0.56500000 0.56500000 0.56500000
H 4.98405496 6.73321097 4.93247332 6624 287 0 1.00000000 1.00000000 1.00000000
H 4.37700320 8.35371068 4.66421753 6625 287 0 1.00000000 1.00000000 1.00000000
H 3.32044343 7.07196041 5.36078666 6626 287 0 1.00000000 1.00000000 1.00000000
H 5.29544818 9.03523642 6.56986162 6627 287 0 1.00000000 1.00000000 1.00000000
H 5.57202187 7.48383433 7.22028797 6628 287 0 1.00000000 1.00000000 1.00000000
H 3.10493848 7.52640687 8.14060384 6629 287 0 1.00000000 1.00000000 1.00000000
H 2.81992556 8.96347662 7.29423603 6630 287 0 1.00000000 1.00000000 1.00000000
H 4.71516166 10.06099656 8.70365907 6631 287 0 1.00000000 1.00000000 1.00000000
H 4.95715476 8.40259759 9.29039289 6632 287 0 1.00000000 1.00000000 1.00000000
H 2.67756093 8.32848446 10.15141956 6633 287 0 1.00000000 1.00000000 1.00000000
H 2.28990214 9.93514112 9.82551714 6634 287 0 1.00000000 1.00000000 1.00000000
H 4.52927920 9.19357616 11.84427027 6635 287 0 1.00000000 1.00000000 1.00000000
H 2.94021741 9.54864693 12.15596132 6636 287 0 1.00000000 1.00000000 1.00000000
H 4.98738371 11.41585186 10.73400092 6637 287 0 1.00000000 1.00000000 1.00000000
H 4.42828496 11.64973935 12.33298012 6638 287 0 1.00000000 1.00000000 1.00000000
H 3.22580165 11.75359906 11.03013168 6639 287 0 1.00000000 1.00000000 1.00000000
C 25.53042236 47.31156241 4.03713428 6640 288 0 0.56500000 0.56500000 0.56500000
C 25.33323769 47.76238159 5.51700834 6641 288 0 0.56500000 0.56500000 0.56500000
C 24.13932402 47.34673663 6.30491461 6642 288 0 0.56500000 0.56500000 0.56500000
C 23.58715427 48.18504203 7.39969218 6643 288 0 0.56500000 0.56500000 0.56500000
C 22.60467436 47.38254004 8.20053408 6644 288 0 0.56500000 0.56500000 0.56500000
C 21.28216528 47.02723148 7.56435545 6645 288 0 0.56500000 0.56500000 0.56500000
C 20.28127502 46.49711534 8.62852710 6646 288 0 0.56500000 0.56500000 0.56500000
H 26.57721325 47.06798001 3.93497079 6647 288 0 1.00000000 1.00000000 1.00000000
H 25.23131851 47.98367652 3.23355834 6648 288 0 1.00000000 1.00000000 1.00000000
H 25.02593380 46.33950707 3.96964331 6649 288 0 1.00000000 1.00000000 1.00000000
H 25.32391319 48.86268904 5.54488818 6650 288 0 1.00000000 1.00000000 1.00000000
H 26.23341864 47.37375831 6.13326019 6651 288 0 1.00000000 1.00000000 1.00000000
H 24.48332896 46.29026457 6.65964647 6652 288 0 1.00000000 1.00000000 1.00000000
H 23.31580758 47.20451724 5.57981747 6653 288 0 1.00000000 1.00000000 1.00000000
H 23.10417252 49.14972081 7.18846299 6654 288 0 1.00000000 1.00000000 1.00000000
H 24.38545031 48.58746092 8.08406565 6655 288 0 1.00000000 1.00000000 1.00000000
H 22.38056700 47.98740435 9.10730161 6656 288 0 1.00000000 1.00000000 1.00000000
H 23.15529986 46.54509750 8.54722792 6657 288 0 1.00000000 1.00000000 1.00000000
H 21.39097885 46.28745310 6.69794603 6658 288 0 1.00000000 1.00000000 1.00000000
H 20.86018788 47.92199162 7.07116645 6659 288 0 1.00000000 1.00000000 1.00000000
H 20.68338694 45.60824015 9.11999752 6660 288 0 1.00000000 1.00000000 1.00000000
H 19.25650791 46.24713383 8.31933116 6661 288 0 1.00000000 1.00000000 1.00000000
H 20.08857188 47.16243065 9.43720661 6662 288 0 1.00000000 1.00000000 1.00000000
C 38.71054781 5.91450687 2.43551110 6663 289 0 0.56500000 0.56500000 0.56500000
C 38.90012544 6.23989551 3.94920348 6664 289 0 0.56500000 0.56500000 0.56500000
C 39.07831240 7.71192107 4.18693970 6665 289 0 0.56500000 0.56500000 0.56500000
C 38.96051614 8.17673602 5.62406286 6666 289 0 0.56500000 0.56500000 0.56500000
C 39.37279281 9.62651635 5.78617799 6667 289 0 0.56500000 0.56500000 0.56500000
C 40.89765391 9.70074890 5.80312111 6668 289 0 0.56500000 0.56500000 0.56500000
C 41.38106772 11.09864090 6.27525335 6669 289 0 0.56500000 0.56500000 0.56500000
H 38.58985535 4.81835047 2.22409883 6670 289 0 1.00000000 1.00000000 1.00000000
H 39.57573236 6.39138894 1.83778778 6671 289 0 1.00000000 1.00000000 1.00000000
H 37.78211733 6.44463348 2.11186087 6672 289 0 1.00000000 1.00000000 1.00000000
H 39.83263734 5.73858956 4.28059734 6673 289 0 1.00000000 1.00000000 1.00000000
H 38.11544280 5.80184068 4.51641715 6674 289 0 1.00000000 1.00000000 1.00000000
H 38.30528763 8.23852434 3.57545623 6675 289 0 1.00000000 1.00000000 1.00000000
H 39.99164705 8.00504518 3.68195663 6676 289 0 1.00000000 1.00000000 1.00000000
H 39.59231181 7.49957499 6.19068318 6677 289 0 1.00000000 1.00000000 1.00000000
H 37.95529334 7.95982222 6.01935468 6678 289 0 1.00000000 1.00000000 1.00000000
H 39.01094562 10.07812110 6.65322794 6679 289 0 1.00000000 1.00000000 1.00000000
H 38.87476730 10.19552833 5.07833263 6680 289 0 1.00000000 1.00000000 1.00000000
H 41.22766685 9.43197409 4.84245433 6681 289 0 1.00000000 1.00000000 1.00000000
H 41.23055309 8.92040318 6.48703159 6682 289 0 1.00000000 1.00000000 1.00000000
H 41.34295492 11.21349900 7.35160761 6683 289 0 1.00000000 1.00000000 1.00000000
H 40.79647966 11.95337543 5.87137128 6684 289 0 1.00000000 1.00000000 1.00000000
H 42.41265886 11.29707100 6.07701011 6685 289 0 1.00000000 1.00000000 1.00000000
C 4.62584883 9.32100704 14.54346566 6686 290 0 0.56500000 0.56500000 0.56500000
C 4.77954086 8.84511804 15.97598207 6687 290 0 0.56500000 0.56500000 0.56500000
C 3.51893665 8.57864811 16.72929287 6688 290 0 0.56500000 0.56500000 0.56500000
C 3.81498803 7.95197918 18.05687061 6689 290 0 0.56500000 0.56500000 0.56500000
C 4.08077371 6.43568006 18.19316962 6690 290 0 0.56500000 0.56500000 0.56500000
C 4.71471633 5.95995695 19.49353172 6691 290 0 0.56500000 0.56500000 0.56500000
C 4.94884997 4.47613799 19.58979617 6692 290 0 0.56500000 0.56500000 0.56500000
H 3.69361393 9.00888868 14.11935240 6693 290 0 1.00000000 1.00000000 1.00000000
H 5.41953652 8.89482852 13.90714381 6694 290 0 1.00000000 1.00000000 1.00000000
H 4.47276449 10.41009871 14.36485134 6695 290 0 1.00000000 1.00000000 1.00000000
H 5.44560619 9.66224948 16.38038813 6696 290 0 1.00000000 1.00000000 1.00000000
H 5.41320301 7.96293041 16.00695692 6697 290 0 1.00000000 1.00000000 1.00000000
H 2.86917207 7.99484342 16.11718662 6698 290 0 1.00000000 1.00000000 1.00000000
H 2.85120752 9.44356657 16.96740189 6699 290 0 1.00000000 1.00000000 1.00000000
H 2.95769474 8.16849990 18.68532057 6700 290 0 1.00000000 1.00000000 1.00000000
H 4.76433929 8.40562189 18.41632213 6701 290 0 1.00000000 1.00000000 1.00000000
H 4.85699114 6.07441759 17.35616253 6702 290 0 1.00000000 1.00000000 1.00000000
H 3.21057797 5.86801276 17.95125013 6703 290 0 1.00000000 1.00000000 1.00000000
H 4.12052737 6.43074135 20.29067348 6704 290 0 1.00000000 1.00000000 1.00000000
H 5.69828958 6.38511943 19.60700957 6705 290 0 1.00000000 1.00000000 1.00000000
H 4.08175387 3.96778515 19.35044720 6706 290 0 1.00000000 1.00000000 1.00000000
H 5.28664730 4.13731137 20.60422819 6707 290 0 1.00000000 1.00000000 1.00000000
H 5.71942209 4.16290175 18.82538877 6708 290 0 1.00000000 1.00000000 1.00000000
C 29.38236997 47.73198293 17.48987407 6709 291 0 0.56500000 0.56500000 0.56500000
C 28.14814460 46.98063911 18.12383666 6710 291 0 0.56500000 0.56500000 0.56500000
C 26.99964987 47.94118550 18.31133794 6711 291 0 0.56500000 0.56500000 0.56500000
C 25.65734622 47.29486603 18.73145961 6712 291 0 0.56500000 0.56500000 0.56500000
C 24.63951537 48.29158206 19.23794387 6713 291 0 0.56500000 0.56500000 0.56500000
C 23.62023522 47.65571404 20.19655928 6714 291 0 0.56500000 0.56500000 0.56500000
C 22.70455285 48.72439323 20.82086174 6715 291 0 0.56500000 0.56500000 0.56500000
H 29.27293458 48.03468098 16.39089788 6716 291 0 1.00000000 1.00000000 1.00000000
H 30.31524203 47.07000439 17.52014835 6717 291 0 1.00000000 1.00000000 1.00000000
H 29.57938388 48.63677967 18.01850473 6718 291 0 1.00000000 1.00000000 1.00000000
H 28.40727604 46.48908377 19.05338842 6719 291 0 1.00000000 1.00000000 1.00000000
H 28.09024430 46.07129352 17.49055345 6720 291 0 1.00000000 1.00000000 1.00000000
H 26.84064230 48.53499759 17.45131530 6721 291 0 1.00000000 1.00000000 1.00000000
H 27.31181766 48.63511749 19.11530598 6722 291 0 1.00000000 1.00000000 1.00000000
H 25.81360095 46.62253454 19.52064003 6723 291 0 1.00000000 1.00000000 1.00000000
H 25.26187552 46.64814267 17.97830636 6724 291 0 1.00000000 1.00000000 1.00000000
H 24.17077093 48.71514646 18.31931687 6725 291 0 1.00000000 1.00000000 1.00000000
H 25.10265676 49.01685489 19.75683800 6726 291 0 1.00000000 1.00000000 1.00000000
H 24.12805896 47.18371985 21.06263246 6727 291 0 1.00000000 1.00000000 1.00000000
H 22.90246685 46.95831834 19.73039546 6728 291 0 1.00000000 1.00000000 1.00000000
H 23.30561044 49.30296097 21.49970578 6729 291 0 1.00000000 1.00000000 1.00000000
H 21.93011986 48.31976582 21.43089506 6730 291 0 1.00000000 1.00000000 1.00000000
H 22.18465014 49.37490534 20.05882276 6731 291 0 1.00000000 1.00000000 1.00000000
C 20.47464431 27.43122092 21.46794260 6732 292 0 0.56500000 0.56500000 0.56500000
C 21.35526609 28.56755885 21.08826617 6733 292 0 0.56500000 0.56500000 0.56500000
C 21.00941473 29.91047436 21.84624109 6734 292 0 0.56500000 0.56500000 0.56500000
C 21.97455163 31.07787027 21.42339260 6735 292 0 0.56500000 0.56500000 0.56500000
C 21.64746651 31.51899877 19.94255121 6736 292 0 0.56500000 0.56500000 0.56500000
C 22.41925061 32.82132367 19.57770028 6737 292 0 0.56500000 0.56500000 0.56500000
C 21.77691957 33.59428263 18.38044143 6738 292 0 0.56500000 0.56500000 0.56500000
H 20.94539797 26.45029218 21.18615041 6739 292 0 1.00000000 1.00000000 1.00000000
H 19.47950458 27.46918167 21.03480564 6740 292 0 1.00000000 1.00000000 1.00000000
H 20.31358305 27.37116610 22.56075638 6741 292 0 1.00000000 1.00000000 1.00000000
H 21.27595618 28.80667900 19.98438859 6742 292 0 1.00000000 1.00000000 1.00000000
H 22.39282980 28.31386767 21.40507460 6743 292 0 1.00000000 1.00000000 1.00000000
H 21.14375796 29.71570988 22.92983688 6744 292 0 1.00000000 1.00000000 1.00000000
H 19.95294492 30.23746192 21.73116315 6745 292 0 1.00000000 1.00000000 1.00000000
H 23.07077684 30.72969674 21.62669382 6746 292 0 1.00000000 1.00000000 1.00000000
H 21.82816427 32.03068167 21.88370096 6747 292 0 1.00000000 1.00000000 1.00000000
H 20.55510957 31.65344744 19.95593769 6748 292 0 1.00000000 1.00000000 1.00000000
H 21.74207489 30.71566384 19.27561931 6749 292 0 1.00000000 1.00000000 1.00000000
H 23.41504938 32.51613376 19.35852440 6750 292 0 1.00000000 1.00000000 1.00000000
H 22.57975048 33.49656107 20.46943290 6751 292 0 1.00000000 1.00000000 1.00000000
H 22.21431043 33.22298936 17.51260114 6752 292 0 1.00000000 1.00000000 1.00000000
H 21.85596727 34.65580308 18.34472544 6753 292 0 1.00000000 1.00000000 1.00000000
H 20.67356514 33.30819571 18.31690687 6754 292 0 1.00000000 1.00000000 1.00000000
C 25.46611833 39.02145474 14.00075192 6755 293 0 0.56500000 0.56500000 0.56500000
C 26.38795870 40.04572846 13.27628993 6756 293 0 0.56500000 0.56500000 0.56500000
C 25.97064383 40.49030989 11.88123689 6757 293 0 0.56500000 0.56500000 0.56500000
C 25.65861276 39.29659239 11.01123811 6758 293 0 0.56500000 0.56500000 0.56500000
C 26.81840484 38.34221513 10.77678811 6759 293 0 0.56500000 0.56500000 0.56500000
C 26.36991984 37.10296615 9.85768310 6760 293 0 0.56500000 0.56500000 0.56500000
C 27.50423438 36.42398308 9.07551106 6761 293 0 0.56500000 0.56500000 0.56500000
H 25.57021138 38.12672631 13.43200026 6762 293 0 1.00000000 1.00000000 1.00000000
H 24.42508487 39.29170654 14.05670407 6763 293 0 1.00000000 1.00000000 1.00000000
H 25.80526311 38.90500784 15.08211648 6764 293 0 1.00000000 1.00000000 1.00000000
H 27.28065113 39.43726902 13.09276260 6765 293 0 1.00000000 1.00000000 1.00000000
H 26.75056738 40.86852877 13.94453778 6766 293 0 1.00000000 1.00000000 1.00000000
H 26.75045697 41.15425241 11.41541149 6767 293 0 1.00000000 1.00000000 1.00000000
H 25.08842700 41.06896123 12.07009335 6768 293 0 1.00000000 1.00000000 1.00000000
H 25.33134839 39.56714669 10.04558449 6769 293 0 1.00000000 1.00000000 1.00000000
H 24.87183408 38.78745760 11.56485091 6770 293 0 1.00000000 1.00000000 1.00000000
H 27.24596070 38.08147216 11.72351989 6771 293 0 1.00000000 1.00000000 1.00000000
H 27.60266970 38.81727866 10.25225273 6772 293 0 1.00000000 1.00000000 1.00000000
H 25.66090293 37.53040421 9.11066684 6773 293 0 1.00000000 1.00000000 1.00000000
H 25.80009898 36.35832781 10.37089594 6774 293 0 1.00000000 1.00000000 1.00000000
H 28.33121764 35.99053682 9.69707370 6775 293 0 1.00000000 1.00000000 1.00000000
H 28.02502414 36.97181026 8.27055566 6776 293 0 1.00000000 1.00000000 1.00000000
H 27.06280319 35.53463014 8.60858016 6777 293 0 1.00000000 1.00000000 1.00000000
C 24.23649399 22.09424060 31.84754250 6778 294 0 0.56500000 0.56500000 0.56500000
C 23.97496997 21.38695866 33.15599219 6779 294 0 0.56500000 0.56500000 0.56500000
C 22.68675815 20.53157051 33.20591186 6780 294 0 0.56500000 0.56500000 0.56500000
C 22.29373343 20.33643638 34.71149276 6781 294 0 0.56500000 0.56500000 0.56500000
C 21.15086797 19.41856820 34.99131270 6782 294 0 0.56500000 0.56500000 0.56500000
C 21.17315220 19.11984501 36.51943963 6783 294 0 0.56500000 0.56500000 0.56500000
C 20.31948423 17.92787848 36.99761916 6784 294 0 0.56500000 0.56500000 0.56500000
H 23.38294914 22.76398220 31.69080332 6785 294 0 1.00000000 1.00000000 1.00000000
H 24.25169038 21.34180506 31.05958599 6786 294 0 1.00000000 1.00000000 1.00000000
H 25.06619363 22.69175376 31.88331311 6787 294 0 1.00000000 1.00000000 1.00000000
H 23.87486576 22.12029589 33.97561112 6788 294 0 1.00000000 1.00000000 1.00000000
H 24.91835185 20.91227291 33.53682075 6789 294 0 1.00000000 1.00000000 1.00000000
H 22.74677071 19.57763199 32.71762647 6790 294 0 1.00000000 1.00000000 1.00000000
H 21.91120322 21.09492888 32.67191577 6791 294 0 1.00000000 1.00000000 1.00000000
H 22.06265106 21.36460994 35.03315081 6792 294 0 1.00000000 1.00000000 1.00000000
H 23.23285664 20.12813089 35.26690421 6793 294 0 1.00000000 1.00000000 1.00000000
H 21.23670920 18.46063550 34.45640034 6794 294 0 1.00000000 1.00000000 1.00000000
H 20.18089134 19.86652924 34.68436256 6795 294 0 1.00000000 1.00000000 1.00000000
H 20.76751313 20.00766447 37.00064904 6796 294 0 1.00000000 1.00000000 1.00000000
H 22.19434105 19.16288286 36.79871149 6797 294 0 1.00000000 1.00000000 1.00000000
H 20.18964957 17.87194850 38.04951650 6798 294 0 1.00000000 1.00000000 1.00000000
H 20.65055924 16.88389701 36.75683447 6799 294 0 1.00000000 1.00000000 1.00000000
H 19.31517298 18.00153239 36.69043024 6800 294 0 1.00000000 1.00000000 1.00000000
C 26.05059112 6.95088357 10.21027090 6801 295 0 0.56500000 0.56500000 0.56500000
C 27.12809143 6.05313920 10.81101505 6802 295 0 0.56500000 0.56500000 0.56500000
C 28.56233964 6.34918727 10.36355558 6803 295 0 0.56500000 0.56500000 0.56500000
C 29.62509417 5.47093365 11.06415534 6804 295 0 0.56500000 0.56500000 0.56500000
C 29.62659821 5.63523458 12.58551170 6805 295 0 0.56500000 0.56500000 0.56500000
C 30.71825761 4.99990351 13.47904097 6806 295 0 0.56500000 0.56500000 0.56500000
C 30.39533624 5.26359153 14.95779251 6807 295 0 0.56500000 0.56500000 0.56500000
H 26.16871694 8.01837829 10.44205295 6808 295 0 1.00000000 1.00000000 1.00000000
H 24.98954041 6.62085060 10.51897195 6809 295 0 1.00000000 1.00000000 1.00000000
H 26.14483276 6.85936089 9.09995503 6810 295 0 1.00000000 1.00000000 1.00000000
H 27.03840669 5.00712610 10.51313441 6811 295 0 1.00000000 1.00000000 1.00000000
H 27.13570640 6.03384524 11.94711804 6812 295 0 1.00000000 1.00000000 1.00000000
H 28.84934989 7.39200783 10.43968815 6813 295 0 1.00000000 1.00000000 1.00000000
H 28.68511347 6.10306485 9.28498193 6814 295 0 1.00000000 1.00000000 1.00000000
H 30.51481009 5.70943151 10.54826018 6815 295 0 1.00000000 1.00000000 1.00000000
H 29.51418014 4.32837570 10.91150885 6816 295 0 1.00000000 1.00000000 1.00000000
H 28.75813737 5.11362088 12.92167095 6817 295 0 1.00000000 1.00000000 1.00000000
H 29.43672599 6.67279069 12.86415114 6818 295 0 1.00000000 1.00000000 1.00000000
H 31.69291352 5.36586859 13.19431429 6819 295 0 1.00000000 1.00000000 1.00000000
H 30.87022539 3.86354481 13.30955026 6820 295 0 1.00000000 1.00000000 1.00000000
H 30.30806301 6.36974590 15.06220370 6821 295 0 1.00000000 1.00000000 1.00000000
H 31.28225840 4.92761256 15.48186101 6822 295 0 1.00000000 1.00000000 1.00000000
H 29.62024320 4.62098208 15.34297784 6823 295 0 1.00000000 1.00000000 1.00000000
C 36.45663097 22.20038857 27.89280229 6824 296 0 0.56500000 0.56500000 0.56500000
C 37.75756149 23.01165121 28.22606507 6825 296 0 0.56500000 0.56500000 0.56500000
C 38.20635992 23.12182985 29.72579789 6826 296 0 0.56500000 0.56500000 0.56500000
C 37.65890175 24.40686565 30.39517100 6827 296 0 0.56500000 0.56500000 0.56500000
C 36.16601533 24.52425260 30.33733461 6828 296 0 0.56500000 0.56500000 0.56500000
C 35.36351749 25.68349786 30.98874762 6829 296 0 0.56500000 0.56500000 0.56500000
C 33.84195399 25.55989043 30.89757399 6830 296 0 0.56500000 0.56500000 0.56500000
H 35.59033171 22.55308046 28.41428021 6831 296 0 1.00000000 1.00000000 1.00000000
H 36.50929565 21.14728660 28.12669902 6832 296 0 1.00000000 1.00000000 1.00000000
H 36.36797211 22.26487565 26.82973934 6833 296 0 1.00000000 1.00000000 1.00000000
H 37.60127092 24.13266250 27.92966541 6834 296 0 1.00000000 1.00000000 1.00000000
H 38.53721321 22.69355753 27.61619900 6835 296 0 1.00000000 1.00000000 1.00000000
H 39.34373318 23.25793472 29.85402250 6836 296 0 1.00000000 1.00000000 1.00000000
H 37.84508815 22.20293177 30.28448564 6837 296 0 1.00000000 1.00000000 1.00000000
H 37.99122659 25.20535125 29.75741290 6838 296 0 1.00000000 1.00000000 1.00000000
H 38.04540094 24.57953210 31.40270611 6839 296 0 1.00000000 1.00000000 1.00000000
H 35.76284814 23.61836976 30.75975659 6840 296 0 1.00000000 1.00000000 1.00000000
H 35.68500691 24.42018467 29.34133401 6841 296 0 1.00000000 1.00000000 1.00000000
H 35.64067741 26.66238361 30.60030301 6842 296 0 1.00000000 1.00000000 1.00000000
H 35.60730709 25.83129178 32.08841431 6843 296 0 1.00000000 1.00000000 1.00000000
H 33.42728388 26.49453515 31.40273146 6844 296 0 1.00000000 1.00000000 1.00000000
H 33.52234730 24.58896653 31.30359796 6845 296 0 1.00000000 1.00000000 1.00000000
H 33.47650937 25.51690268 29.86200240 6846 296 0 1.00000000 1.00000000 1.00000000
C 3.20779953 29.88937090 37.11502518 6847 297 0 0.56500000 0.56500000 0.56500000
C 4.15183497 28.96426426 37.76597895 6848 297 0 0.56500000 0.56500000 0.56500000
C 5.09936368 28.24254957 36.80541593 6849 297 0 0.56500000 0.56500000 0.56500000
C 5.78120040 27.06145569 37.53127235 6850 297 0 0.56500000 0.56500000 0.56500000
C 6.74483784 26.30769952 36.64701656 6851 297 0 0.56500000 0.56500000 0.56500000
C 7.21575792 25.05418502 37.24867239 6852 297 0 0.56500000 0.56500000 0.56500000
C 6.20515011 23.87914223 37.20408054 6853 297 0 0.56500000 0.56500000 0.56500000
H 3.67238145 30.76049738 36.60129576 6854 297 0 1.00000000 1.00000000 1.00000000
H 2.55835020 30.40262010 37.83155801 6855 297 0 1.00000000 1.00000000 1.00000000
H 2.60398741 29.45417384 36.36485057 6856 297 0 1.00000000 1.00000000 1.00000000
H 3.51781046 28.20992930 38.21662920 6857 297 0 1.00000000 1.00000000 1.00000000
H 4.72121852 29.51279528 38.56246371 6858 297 0 1.00000000 1.00000000 1.00000000
H 5.92881990 28.92124496 36.47187886 6859 297 0 1.00000000 1.00000000 1.00000000
H 4.49381417 27.97301017 35.98638618 6860 297 0 1.00000000 1.00000000 1.00000000
H 4.96689071 26.47522312 37.91741303 6861 297 0 1.00000000 1.00000000 1.00000000
H 6.26318624 27.34658730 38.45685386 6862 297 0 1.00000000 1.00000000 1.00000000
H 7.54107005 26.97391492 36.44187304 6863 297 0 1.00000000 1.00000000 1.00000000
H 6.33153985 26.09856378 35.63318250 6864 297 0 1.00000000 1.00000000 1.00000000
H 7.48854443 25.35003413 38.23858849 6865 297 0 1.00000000 1.00000000 1.00000000
H 8.09365682 24.69552218 36.77106954 6866 297 0 1.00000000 1.00000000 1.00000000
H 5.59988405 23.86676144 38.07266261 6867 297 0 1.00000000 1.00000000 1.00000000
H 6.76126518 22.94992735 37.15401329 6868 297 0 1.00000000 1.00000000 1.00000000
H 5.47753071 23.84656308 36.37675533 6869 297 0 1.00000000 1.00000000 1.00000000
C 37.82101526 39.11284340 34.92811573 6870 298 0 0.56500000 0.56500000 0.56500000
C 36.50172375 38.46586717 34.56236975 6871 298 0 0.56500000 0.56500000 0.56500000
C 36.61199518 37.69798510 33.21529028 6872 298 0 0.56500000 0.56500000 0.56500000
C 37.18525906 36.34818444 33.35725670 6873 298 0 0.56500000 0.56500000 0.56500000
C 37.02270141 35.51591407 32.08343036 6874 298 0 0.56500000 0.56500000 0.56500000
C 37.54103802 34.11756753 32.21322638 6875 298 0 0.56500000 0.56500000 0.56500000
C 39.04102700 34.02422363 32.50136907 6876 298 0 0.56500000 0.56500000 0.56500000
H 38.11152275 38.72820583 35.96541878 6877 298 0 1.00000000 1.00000000 1.00000000
H 37.82242381 40.20699074 34.85229414 6878 298 0 1.00000000 1.00000000 1.00000000
H 38.49330432 38.65868310 34.20924678 6879 298 0 1.00000000 1.00000000 1.00000000
H 35.74867810 39.26908210 34.39252889 6880 298 0 1.00000000 1.00000000 1.00000000
H 36.04866603 37.83595067 35.41150300 6881 298 0 1.00000000 1.00000000 1.00000000
H 37.13165408 38.29160695 32.48586938 6882 298 0 1.00000000 1.00000000 1.00000000
H 35.55479431 37.64512571 32.77981910 6883 298 0 1.00000000 1.00000000 1.00000000
H 36.68491638 35.75896182 34.20178186 6884 298 0 1.00000000 1.00000000 1.00000000
H 38.25256981 36.37064458 33.71026944 6885 298 0 1.00000000 1.00000000 1.00000000
H 37.61546364 35.97233262 31.30762291 6886 298 0 1.00000000 1.00000000 1.00000000
H 35.96358832 35.62424745 31.88010976 6887 298 0 1.00000000 1.00000000 1.00000000
H 37.30754160 33.52179536 31.35301183 6888 298 0 1.00000000 1.00000000 1.00000000
H 36.90856330 33.56807266 33.01840263 6889 298 0 1.00000000 1.00000000 1.00000000
H 39.59480382 34.60585375 31.75619552 6890 298 0 1.00000000 1.00000000 1.00000000
H 39.39566202 32.99277179 32.37199148 6891 298 0 1.00000000 1.00000000 1.00000000
H 39.32481215 34.15815515 33.57530512 6892 298 0 1.00000000 1.00000000 1.00000000
C 29.02378415 9.49425722 17.74282729 6893 299 0 0.56500000 0.56500000 0.56500000
C 27.99761760 9.78468833 18.83090210 6894 299 0 0.56500000 0.56500000 0.56500000
C 26.57544639 9.42147440 18.42644523 6895 299 0 0.56500000 0.56500000 0.56500000
C 25.51728076 9.67563019 19.50322270 6896 299 0 0.56500000 0.56500000 0.56500000
C 25.41247142 11.16016198 19.83815219 6897 299 0 0.56500000 0.56500000 0.56500000
C 24.71567598 12.06527141 18.82327296 6898 299 0 0.56500000 0.56500000 0.56500000
C 25.11147431 13.54112399 19.29038223 6899 299 0 0.56500000 0.56500000 0.56500000
H 28.93039055 10.18364400 16.88370818 6900 299 0 1.00000000 1.00000000 1.00000000
H 29.22524996 8.38667361 17.52702257 6901 299 0 1.00000000 1.00000000 1.00000000
H 30.00594706 9.74696198 18.23482650 6902 299 0 1.00000000 1.00000000 1.00000000
H 28.05463742 10.88598933 19.02350554 6903 299 0 1.00000000 1.00000000 1.00000000
H 28.19555957 9.24861008 19.73674407 6904 299 0 1.00000000 1.00000000 1.00000000
H 26.46338308 8.35194597 18.12815494 6905 299 0 1.00000000 1.00000000 1.00000000
H 26.19114568 9.96752840 17.49524777 6906 299 0 1.00000000 1.00000000 1.00000000
H 25.72007592 9.03200287 20.37111937 6907 299 0 1.00000000 1.00000000 1.00000000
H 24.53694113 9.34346802 19.31165630 6908 299 0 1.00000000 1.00000000 1.00000000
H 26.34950963 11.60999900 20.19139392 6909 299 0 1.00000000 1.00000000 1.00000000
H 24.90704983 11.23898705 20.79379784 6910 299 0 1.00000000 1.00000000 1.00000000
H 23.59490499 11.93881180 18.81652819 6911 299 0 1.00000000 1.00000000 1.00000000
H 25.12033172 11.94288137 17.79882499 6912 299 0 1.00000000 1.00000000 1.00000000
H 26.16515472 13.43553038 19.59380515 6913 299 0 1.00000000 1.00000000 1.00000000
H 24.63760854 13.77563321 20.23936728 6914 299 0 1.00000000 1.00000000 1.00000000
H 24.87697797 14.18472968 18.45512017 6915 299 0 1.00000000 1.00000000 1.00000000
C 11.32316916 47.77037195 29.23937349 6916 300 0 0.56500000 0.56500000 0.56500000
C 10.39665435 46.59975864 28.93974430 6917 300 0 0.56500000 0.56500000 0.56500000
C 10.95348501 45.28299343 29.44640874 6918 300 0 0.56500000 0.56500000 0.56500000
C 10.13174671 43.97859287 29.08494939 6919 300 0 0.56500000 0.56500000 0.56500000
C 8.59576208 44.04584047 29.33975483 6920 300 0 0.56500000 0.56500000 0.56500000
C 8.02592745 42.53130542 29.26053536 6921 300 0 0.56500000 0.56500000 0.56500000
C 6.45341707 42.53293016 29.67566824 6922 300 0 0.56500000 0.56500000 0.56500000
H 12.29358185 47.43740136 29.06041475 6923 300 0 1.00000000 1.00000000 1.00000000
H 11.27142560 48.03448286 30.29926444 6924 300 0 1.00000000 1.00000000 1.00000000
H 11.17368575 48.68449595 28.68546092 6925 300 0 1.00000000 1.00000000 1.00000000
H 10.35623717 46.44785088 27.83588347 6926 300 0 1.00000000 1.00000000 1.00000000
H 9.42296081 46.72176552 29.26297625 6927 300 0 1.00000000 1.00000000 1.00000000
H 11.06665665 45.28214345 30.55541045 6928 300 0 1.00000000 1.00000000 1.00000000
H 11.96748843 45.15017182 29.06224125 6929 300 0 1.00000000 1.00000000 1.00000000
H 10.56731324 43.15871654 29.68406503 6930 300 0 1.00000000 1.00000000 1.00000000
H 10.32748933 43.74725457 28.07565101 6931 300 0 1.00000000 1.00000000 1.00000000
H 8.03190987 44.55158189 28.54681645 6932 300 0 1.00000000 1.00000000 1.00000000
H 8.33514128 44.47729491 30.31939458 6933 300 0 1.00000000 1.00000000 1.00000000
H 8.64463869 41.84008333 29.89311872 6934 300 0 1.00000000 1.00000000 1.00000000
H 8.05212759 42.16516958 28.24156782 6935 300 0 1.00000000 1.00000000 1.00000000
H 5.97406493 43.03903596 28.87075993 6936 300 0 1.00000000 1.00000000 1.00000000
H 6.30407241 43.01805628 30.64784513 6937 300 0 1.00000000 1.00000000 1.00000000
H 5.95076507 41.55884937 29.73625118 6938 300 0 1.00000000 1.00000000 1.00000000
C 39.52775425 2.36938631 20.78724057 6939 301 0 0.56500000 0.56500000 0.56500000
C 38.98380430 3.80826183 20.75080959 6940 301 0 0.56500000 0.56500000 0.56500000
C 39.84447920 4.73141793 19.91204400 6941 301 0 0.56500000 0.56500000 0.56500000
C 39.49733375 6.20654195 19.91480000 6942 301 0 0.56500000 0.56500000 0.56500000
C 40.32948247 7.04409791 18.95483582 6943 301 0 0.56500000 0.56500000 0.56500000
C 39.68924631 8.45681654 18.82503272 6944 301 0 0.56500000 0.56500000 0.56500000
C 40.66767953 9.40304778 18.18558806 6945 301 0 0.56500000 0.56500000 0.56500000
H 40.60698597 2.35851495 20.82449499 6946 301 0 1.00000000 1.00000000 1.00000000
H 39.25758772 1.90193450 19.87451199 6947 301 0 1.00000000 1.00000000 1.00000000
H 39.24407223 1.77946774 21.64188123 6948 301 0 1.00000000 1.00000000 1.00000000
H 38.75418272 4.25518751 21.70736183 6949 301 0 1.00000000 1.00000000 1.00000000
H 37.99780314 3.86956085 20.17239289 6950 301 0 1.00000000 1.00000000 1.00000000
H 39.81910266 4.31064973 18.94907103 6951 301 0 1.00000000 1.00000000 1.00000000
H 40.87963761 4.64608845 20.30012618 6952 301 0 1.00000000 1.00000000 1.00000000
H 39.65289729 6.64125224 20.88573518 6953 301 0 1.00000000 1.00000000 1.00000000
H 38.46191049 6.18117418 19.61963551 6954 301 0 1.00000000 1.00000000 1.00000000
H 40.35444907 6.63393152 17.96405097 6955 301 0 1.00000000 1.00000000 1.00000000
H 41.35900908 7.07979393 19.36987341 6956 301 0 1.00000000 1.00000000 1.00000000
H 39.22388088 8.78752364 19.71885836 6957 301 0 1.00000000 1.00000000 1.00000000
H 38.80576699 8.35701397 18.08656291 6958 301 0 1.00000000 1.00000000 1.00000000
H 41.55165586 9.46145789 18.84581743 6959 301 0 1.00000000 1.00000000 1.00000000
H 40.29713156 10.42617955 18.11468412 6960 301 0 1.00000000 1.00000000 1.00000000
H 41.00822530 8.97269211 17.26298054 6961 301 0 1.00000000 1.00000000 1.00000000
C 7.10067122 11.48387691 32.12631463 6962 302 0 0.56500000 0.56500000 0.56500000
C 6.99846657 10.56066201 30.91047084 6963 302 0 0.56500000 0.56500000 0.56500000
C 6.83763043 11.43392652 29.68615415 6964 302 0 0.56500000 0.56500000 0.56500000
C 6.82551143 10.76844043 28.26870013 6965 302 0 0.56500000 0.56500000 0.56500000
C 5.90431543 9.50901647 28.11238099 6966 302 0 0.56500000 0.56500000 0.56500000
C 6.02021835 8.65461610 26.80154899 6967 302 0 0.56500000 0.56500000 0.56500000
C 5.58667228 9.40699448 25.56609141 6968 302 0 0.56500000 0.56500000 0.56500000
H 7.89550424 12.20120707 32.07153145 6969 302 0 1.00000000 1.00000000 1.00000000
H 7.12959115 10.86488220 33.01373876 6970 302 0 1.00000000 1.00000000 1.00000000
H 6.29156616 12.12138000 32.21605517 6971 302 0 1.00000000 1.00000000 1.00000000
H 6.20967378 9.76157988 31.05714223 6972 302 0 1.00000000 1.00000000 1.00000000
H 7.87736445 9.98310104 30.72217403 6973 302 0 1.00000000 1.00000000 1.00000000
H 7.70103712 12.13019000 29.71360979 6974 302 0 1.00000000 1.00000000 1.00000000
H 5.96508587 12.05388080 29.86253499 6975 302 0 1.00000000 1.00000000 1.00000000
H 7.80027605 10.59127367 27.84408301 6976 302 0 1.00000000 1.00000000 1.00000000
H 6.42293183 11.58810950 27.58198860 6977 302 0 1.00000000 1.00000000 1.00000000
H 4.87225220 9.89928972 28.29756772 6978 302 0 1.00000000 1.00000000 1.00000000
H 6.23835005 8.91289036 28.97647986 6979 302 0 1.00000000 1.00000000 1.00000000
H 5.27123895 7.88383682 27.01315493 6980 302 0 1.00000000 1.00000000 1.00000000
H 7.04455777 8.20471697 26.73020971 6981 302 0 1.00000000 1.00000000 1.00000000
H 4.61015180 9.83629327 25.62059550 6982 302 0 1.00000000 1.00000000 1.00000000
H 5.67179413 8.84356736 24.66061907 6983 302 0 1.00000000 1.00000000 1.00000000
H 6.19732807 10.27754535 25.38560976 6984 302 0 1.00000000 1.00000000 1.00000000
C 37.67574439 28.63692729 14.88535993 6985 303 0 0.56500000 0.56500000 0.56500000
C 38.63730552 27.78725290 14.08509748 6986 303 0 0.56500000 0.56500000 0.56500000
C 37.95505353 26.58543035 13.59468337 6987 303 0 0.56500000 0.56500000 0.56500000
C 38.67207048 25.79505096 12.49485504 6988 303 0 0.56500000 0.56500000 0.56500000
C 38.00728434 24.49823268 12.17912254 6989 303 0 0.56500000 0.56500000 0.56500000
C 36.54993476 24.59217932 11.71826270 6990 303 0 0.56500000 0.56500000 0.56500000
C 35.93921513 23.23988788 11.51824428 6991 303 0 0.56500000 0.56500000 0.56500000
H 36.77392285 28.83901261 14.30072925 6992 303 0 1.00000000 1.00000000 1.00000000
H 38.09204078 29.54904111 15.23945742 6993 303 0 1.00000000 1.00000000 1.00000000
H 37.33459240 28.04899271 15.75500570 6994 303 0 1.00000000 1.00000000 1.00000000
H 39.45052383 27.51182622 14.75512271 6995 303 0 1.00000000 1.00000000 1.00000000
H 39.02966380 28.35789167 13.20778264 6996 303 0 1.00000000 1.00000000 1.00000000
H 37.01143864 27.00212326 13.08618016 6997 303 0 1.00000000 1.00000000 1.00000000
H 37.53429344 25.96329616 14.49124048 6998 303 0 1.00000000 1.00000000 1.00000000
H 39.68422678 25.64288740 12.68124611 6999 303 0 1.00000000 1.00000000 1.00000000
H 38.61970284 26.48446587 11.59465740 7000 303 0 1.00000000 1.00000000 1.00000000
H 38.09423984 23.87455383 13.11249966 7001 303 0 1.00000000 1.00000000 1.00000000
H 38.61827918 23.99128662 11.42873026 7002 303 0 1.00000000 1.00000000 1.00000000
H 36.37147305 25.30291181 10.90988907 7003 303 0 1.00000000 1.00000000 1.00000000
H 35.95882794 25.03414244 12.55174034 7004 303 0 1.00000000 1.00000000 1.00000000
H 34.89045628 23.40685873 11.14239378 7005 303 0 1.00000000 1.00000000 1.00000000
H 35.80210847 22.85236482 12.52651898 7006 303 0 1.00000000 1.00000000 1.00000000
H 36.48379212 22.54351932 10.88186839 7007 303 0 1.00000000 1.00000000 1.00000000
C 28.85283422 9.63572790 13.10050578 7008 304 0 0.56500000 0.56500000 0.56500000
C 27.74078185 8.92776343 13.90091606 7009 304 0 0.56500000 0.56500000 0.56500000
C 26.46985741 9.76192803 14.20953255 7010 304 0 0.56500000 0.56500000 0.56500000
C 25.33618481 8.90464860 14.87690470 7011 304 0 0.56500000 0.56500000 0.56500000
C 24.24575189 9.73290425 15.52035432 7012 304 0 0.56500000 0.56500000 0.56500000
C 23.35764634 8.84218734 16.43696967 7013 304 0 0.56500000 0.56500000 0.56500000
C 22.29134077 9.66265206 17.20689899 7014 304 0 0.56500000 0.56500000 0.56500000
H 28.67591851 9.85289786 12.01956522 7015 304 0 1.00000000 1.00000000 1.00000000
H 29.65626257 8.92700093 13.01774282 7016 304 0 1.00000000 1.00000000 1.00000000
H 29.28923069 10.58864707 13.44938020 7017 304 0 1.00000000 1.00000000 1.00000000
H 28.29028993 8.49778358 14.79610053 7018 304 0 1.00000000 1.00000000 1.00000000
H 27.40763195 7.97145144 13.38525275 7019 304 0 1.00000000 1.00000000 1.00000000
H 26.16470768 10.30961785 13.34175914 7020 304 0 1.00000000 1.00000000 1.00000000
H 26.71772759 10.53354131 15.01426281 7021 304 0 1.00000000 1.00000000 1.00000000
H 25.86515624 8.26460248 15.61335861 7022 304 0 1.00000000 1.00000000 1.00000000
H 24.91448540 8.26096711 14.17977663 7023 304 0 1.00000000 1.00000000 1.00000000
H 23.64645051 10.31539964 14.80900352 7024 304 0 1.00000000 1.00000000 1.00000000
H 24.70685869 10.58902604 16.11937151 7025 304 0 1.00000000 1.00000000 1.00000000
H 23.92101798 8.35245192 17.18391809 7026 304 0 1.00000000 1.00000000 1.00000000
H 22.84028422 8.01349338 15.88563518 7027 304 0 1.00000000 1.00000000 1.00000000
H 21.79128307 9.07758142 17.88359203 7028 304 0 1.00000000 1.00000000 1.00000000
H 21.59734327 10.18877420 16.49580894 7029 304 0 1.00000000 1.00000000 1.00000000
H 22.81650853 10.37025976 17.84597144 7030 304 0 1.00000000 1.00000000 1.00000000
C 25.81837815 2.62511118 31.12159973 7031 305 0 0.56500000 0.56500000 0.56500000
C 24.61557537 3.57396052 30.93892875 7032 305 0 0.56500000 0.56500000 0.56500000
C 24.54543314 4.77075696 31.86746575 7033 305 0 0.56500000 0.56500000 0.56500000
C 25.66427375 5.84508891 31.81624668 7034 305 0 0.56500000 0.56500000 0.56500000
C 25.46668954 6.78904271 32.95868858 7035 305 0 0.56500000 0.56500000 0.56500000
C 26.28020071 8.14865864 33.00780822 7036 305 0 0.56500000 0.56500000 0.56500000
C 26.09251499 8.86411843 34.33358813 7037 305 0 0.56500000 0.56500000 0.56500000
H 25.55427118 1.71257681 30.60183149 7038 305 0 1.00000000 1.00000000 1.00000000
H 25.76800364 2.43700257 32.21329542 7039 305 0 1.00000000 1.00000000 1.00000000
H 26.70669425 3.20771209 30.69850182 7040 305 0 1.00000000 1.00000000 1.00000000
H 23.69506411 2.98918999 31.11595060 7041 305 0 1.00000000 1.00000000 1.00000000
H 24.64338321 3.85490385 29.90587616 7042 305 0 1.00000000 1.00000000 1.00000000
H 24.43227651 4.40802402 32.93333426 7043 305 0 1.00000000 1.00000000 1.00000000
H 23.61417298 5.31512200 31.71185152 7044 305 0 1.00000000 1.00000000 1.00000000
H 25.69680603 6.43861651 30.84765507 7045 305 0 1.00000000 1.00000000 1.00000000
H 26.63002349 5.27693769 31.90821860 7046 305 0 1.00000000 1.00000000 1.00000000
H 25.68708225 6.32147457 33.89016380 7047 305 0 1.00000000 1.00000000 1.00000000
H 24.43176699 7.07173356 33.05650784 7048 305 0 1.00000000 1.00000000 1.00000000
H 25.97993613 8.89755201 32.26647400 7049 305 0 1.00000000 1.00000000 1.00000000
H 27.32884729 8.02949094 32.77987975 7050 305 0 1.00000000 1.00000000 1.00000000
H 25.33752859 8.23990796 34.98157432 7051 305 0 1.00000000 1.00000000 1.00000000
H 25.54099291 9.79064693 34.20536154 7052 305 0 1.00000000 1.00000000 1.00000000
H 26.98739574 8.99460117 34.97420832 7053 305 0 1.00000000 1.00000000 1.00000000
C 33.70235517 10.05136702 -2.33241553 7054 306 0 0.56500000 0.56500000 0.56500000
C 32.65826442 9.06757964 -1.57667840 7055 306 0 0.56500000 0.56500000 0.56500000
C 33.34457010 7.97326669 -0.80149917 7056 306 0 0.56500000 0.56500000 0.56500000
C 33.75937773 6.80240846 -1.65194376 7057 306 0 0.56500000 0.56500000 0.56500000
C 34.27555840 5.67424843 -0.68489043 7058 306 0 0.56500000 0.56500000 0.56500000
C 33.17824450 5.09922979 0.17756440 7059 306 0 0.56500000 0.56500000 0.56500000
C 33.74131783 3.70736450 0.66582193 7060 306 0 0.56500000 0.56500000 0.56500000
H 34.38452391 10.46270572 -1.49522517 7061 306 0 1.00000000 1.00000000 1.00000000
H 33.22459448 10.95057274 -2.77929909 7062 306 0 1.00000000 1.00000000 1.00000000
H 34.38529017 9.56145530 -3.01874529 7063 306 0 1.00000000 1.00000000 1.00000000
H 31.94421301 8.75249753 -2.32909263 7064 306 0 1.00000000 1.00000000 1.00000000
H 32.06642820 9.76664499 -0.94433004 7065 306 0 1.00000000 1.00000000 1.00000000
H 32.68630241 7.71717079 0.06859299 7066 306 0 1.00000000 1.00000000 1.00000000
H 34.25077556 8.38214714 -0.39315975 7067 306 0 1.00000000 1.00000000 1.00000000
H 34.53031816 7.03799554 -2.39592481 7068 306 0 1.00000000 1.00000000 1.00000000
H 32.92078822 6.38128238 -2.20063772 7069 306 0 1.00000000 1.00000000 1.00000000
H 35.22843727 5.94865796 -0.09223508 7070 306 0 1.00000000 1.00000000 1.00000000
H 34.55179676 4.82932023 -1.29682858 7071 306 0 1.00000000 1.00000000 1.00000000
H 32.29533629 5.04221187 -0.44308201 7072 306 0 1.00000000 1.00000000 1.00000000
H 32.94078849 5.74034882 1.00639258 7073 306 0 1.00000000 1.00000000 1.00000000
H 33.85071560 3.01940007 -0.17391216 7074 306 0 1.00000000 1.00000000 1.00000000
H 33.20936220 3.22336398 1.52681817 7075 306 0 1.00000000 1.00000000 1.00000000
H 34.76893748 3.77363245 0.94980874 7076 306 0 1.00000000 1.00000000 1.00000000
C 31.05705092 31.28219185 -1.15249317 7077 307 0 0.56500000 0.56500000 0.56500000
C 30.36437416 32.56867024 -1.65326534 7078 307 0 0.56500000 0.56500000 0.56500000
C 28.82609584 32.58874165 -1.29677595 7079 307 0 0.56500000 0.56500000 0.56500000
C 27.91659841 31.57549965 -2.03432796 7080 307 0 0.56500000 0.56500000 0.56500000
C 26.49201945 31.63247011 -1.49507653 7081 307 0 0.56500000 0.56500000 0.56500000
C 25.62192275 32.95072031 -1.78513433 7082 307 0 0.56500000 0.56500000 0.56500000
C 25.07304940 32.95212864 -3.19958397 7083 307 0 0.56500000 0.56500000 0.56500000
H 30.63771896 30.41583994 -1.68886835 7084 307 0 1.00000000 1.00000000 1.00000000
H 30.77275185 31.15590339 -0.11635672 7085 307 0 1.00000000 1.00000000 1.00000000
H 32.05525697 31.35712849 -1.29370797 7086 307 0 1.00000000 1.00000000 1.00000000
H 30.57531691 32.62078948 -2.75876211 7087 307 0 1.00000000 1.00000000 1.00000000
H 30.92146844 33.38948646 -1.15622182 7088 307 0 1.00000000 1.00000000 1.00000000
H 28.45041736 33.62370188 -1.46266633 7089 307 0 1.00000000 1.00000000 1.00000000
H 28.82802319 32.33013707 -0.18922362 7090 307 0 1.00000000 1.00000000 1.00000000
H 28.38660102 30.59689868 -2.12087469 7091 307 0 1.00000000 1.00000000 1.00000000
H 27.81847034 31.81897848 -3.12289288 7092 307 0 1.00000000 1.00000000 1.00000000
H 26.50495446 31.52107520 -0.41009868 7093 307 0 1.00000000 1.00000000 1.00000000
H 25.88460634 30.71350612 -1.79036783 7094 307 0 1.00000000 1.00000000 1.00000000
H 26.29087760 33.85876703 -1.72099085 7095 307 0 1.00000000 1.00000000 1.00000000
H 24.95135409 33.04023618 -0.99603304 7096 307 0 1.00000000 1.00000000 1.00000000
H 25.90676139 33.14455295 -3.87093312 7097 307 0 1.00000000 1.00000000 1.00000000
H 24.39204849 33.80092368 -3.37238948 7098 307 0 1.00000000 1.00000000 1.00000000
H 24.59907746 31.98905730 -3.40436479 7099 307 0 1.00000000 1.00000000 1.00000000
C 18.11313896 29.57318119 29.92356960 7100 308 0 0.56500000 0.56500000 0.56500000
C 17.34773065 29.96426166 31.19657653 7101 308 0 0.56500000 0.56500000 0.56500000
C 17.02872397 28.65389825 32.00598978 7102 308 0 0.56500000 0.56500000 0.56500000
C 16.34195772 29.09457459 33.36175797 7103 308 0 0.56500000 0.56500000 0.56500000
C 16.20246237 28.10644568 34.45987056 7104 308 0 0.56500000 0.56500000 0.56500000
C 15.85280644 28.74759838 35.72489758 7105 308 0 0.56500000 0.56500000 0.56500000
C 15.41716740 27.76904689 36.84381507 7106 308 0 0.56500000 0.56500000 0.56500000
H 18.31919657 30.34465397 29.20406692 7107 308 0 1.00000000 1.00000000 1.00000000
H 17.63053463 28.75350262 29.47512057 7108 308 0 1.00000000 1.00000000 1.00000000
H 19.08553388 29.15284486 30.07920694 7109 308 0 1.00000000 1.00000000 1.00000000
H 16.37907860 30.32430522 30.91950967 7110 308 0 1.00000000 1.00000000 1.00000000
H 17.77760816 30.68852195 31.94541305 7111 308 0 1.00000000 1.00000000 1.00000000
H 17.90290691 28.03326181 32.33168923 7112 308 0 1.00000000 1.00000000 1.00000000
H 16.34477579 27.98069678 31.54898900 7113 308 0 1.00000000 1.00000000 1.00000000
H 15.49043617 29.63553217 33.07924318 7114 308 0 1.00000000 1.00000000 1.00000000
H 16.92478343 29.96165833 33.63853251 7115 308 0 1.00000000 1.00000000 1.00000000
H 17.13456121 27.51288200 34.47845193 7116 308 0 1.00000000 1.00000000 1.00000000
H 15.42591411 27.37552420 34.17109094 7117 308 0 1.00000000 1.00000000 1.00000000
H 14.89979832 29.33167810 35.42186057 7118 308 0 1.00000000 1.00000000 1.00000000
H 16.55336468 29.51049564 36.12815898 7119 308 0 1.00000000 1.00000000 1.00000000
H 15.68387112 26.69675304 36.72449678 7120 308 0 1.00000000 1.00000000 1.00000000
H 14.31119237 27.85939206 36.93619730 7121 308 0 1.00000000 1.00000000 1.00000000
H 15.94864489 28.05428571 37.77317031 7122 308 0 1.00000000 1.00000000 1.00000000
C 13.74593081 21.12998029 33.12786578 7123 309 0 0.56500000 0.56500000 0.56500000
C 12.86589536 22.21655320 33.73014248 7124 309 0 0.56500000 0.56500000 0.56500000
C 11.46552511 21.73425853 34.02549020 7125 309 0 0.56500000 0.56500000 0.56500000
C 10.53745102 22.67643553 34.78811323 7126 309 0 0.56500000 0.56500000 0.56500000
C 9.03466056 22.32802291 34.71681730 7127 309 0 0.56500000 0.56500000 0.56500000
C 8.49037442 22.87296688 33.44822154 7128 309 0 0.56500000 0.56500000 0.56500000
C 7.19958025 22.26607595 33.01661185 7129 309 0 0.56500000 0.56500000 0.56500000
H 13.39977389 20.85577297 32.15042331 7130 309 0 1.00000000 1.00000000 1.00000000
H 13.78103672 20.19983321 33.70660915 7131 309 0 1.00000000 1.00000000 1.00000000
H 14.74192342 21.55291872 33.00083193 7132 309 0 1.00000000 1.00000000 1.00000000
H 12.75854873 23.12793187 33.13418798 7133 309 0 1.00000000 1.00000000 1.00000000
H 13.29312502 22.57653825 34.72785186 7134 309 0 1.00000000 1.00000000 1.00000000
H 11.60278504 20.76699501 34.63547203 7135 309 0 1.00000000 1.00000000 1.00000000
H 11.01037693 21.44844267 33.10454273 7136 309 0 1.00000000 1.00000000 1.00000000
H 10.69640639 23.69486430 34.39659075 7137 309 0 1.00000000 1.00000000 1.00000000
H 10.90985094 22.72807614 35.83409899 7138 309 0 1.00000000 1.00000000 1.00000000
H 8.70120181 22.88599677 35.58114399 7139 309 0 1.00000000 1.00000000 1.00000000
H 8.91757280 21.21186967 34.86184936 7140 309 0 1.00000000 1.00000000 1.00000000
H 9.08723645 22.78160775 32.56027112 7141 309 0 1.00000000 1.00000000 1.00000000
H 8.31128629 23.91441504 33.65865684 7142 309 0 1.00000000 1.00000000 1.00000000
H 7.28523113 21.18272211 32.93205874 7143 309 0 1.00000000 1.00000000 1.00000000
H 6.86318441 22.61360044 32.09254029 7144 309 0 1.00000000 1.00000000 1.00000000
H 6.39505287 22.35959650 33.73325495 7145 309 0 1.00000000 1.00000000 1.00000000
C 17.44441316 3.16350732 33.02957672 7146 310 0 0.56500000 0.56500000 0.56500000
C 17.82386891 4.05934998 34.26914014 7147 310 0 0.56500000 0.56500000 0.56500000
C 18.26324862 3.29020185 35.55618015 7148 310 0 0.56500000 0.56500000 0.56500000
C 19.69732147 2.60092551 35.47704891 7149 310 0 0.56500000 0.56500000 0.56500000
C 20.80022279 3.59336981 34.97658377 7150 310 0 0.56500000 0.56500000 0.56500000
C 21.03025905 4.66337750 36.00235257 7151 310 0 0.56500000 0.56500000 0.56500000
C 22.07058536 5.79595206 35.58512361 7152 310 0 0.56500000 0.56500000 0.56500000
H 16.97265914 2.21446605 33.31171845 7153 310 0 1.00000000 1.00000000 1.00000000
H 18.29810089 2.90012299 32.35820309 7154 310 0 1.00000000 1.00000000 1.00000000
H 16.68914021 3.64722823 32.41430676 7155 310 0 1.00000000 1.00000000 1.00000000
H 16.99586502 4.73062279 34.56929781 7156 310 0 1.00000000 1.00000000 1.00000000
H 18.58912638 4.76041424 33.97851722 7157 310 0 1.00000000 1.00000000 1.00000000
H 17.53048074 2.50956413 35.76263592 7158 310 0 1.00000000 1.00000000 1.00000000
H 18.35885881 3.94312856 36.39252387 7159 310 0 1.00000000 1.00000000 1.00000000
H 19.64879473 1.79010775 34.71049771 7160 310 0 1.00000000 1.00000000 1.00000000
H 19.85576705 2.33868350 36.49361837 7161 310 0 1.00000000 1.00000000 1.00000000
H 20.46677363 3.94079542 33.93973874 7162 310 0 1.00000000 1.00000000 1.00000000
H 21.62239303 2.97769525 34.78564017 7163 310 0 1.00000000 1.00000000 1.00000000
H 21.36334152 4.17117788 36.92732952 7164 310 0 1.00000000 1.00000000 1.00000000
H 20.12528435 5.21750062 36.32943666 7165 310 0 1.00000000 1.00000000 1.00000000
H 22.42061122 6.40046896 36.41628944 7166 310 0 1.00000000 1.00000000 1.00000000
H 21.63002585 6.33707868 34.78625654 7167 310 0 1.00000000 1.00000000 1.00000000
H 22.96563639 5.16337897 35.16184686 7168 310 0 1.00000000 1.00000000 1.00000000
C 5.85816794 21.00055160 1.70616381 7169 311 0 0.56500000 0.56500000 0.56500000
C 5.93896817 22.51707509 1.21202731 7170 311 0 0.56500000 0.56500000 0.56500000
C 6.65299004 22.55427821 -0.10759587 7171 311 0 0.56500000 0.56500000 0.56500000
C 5.77309934 21.92488058 -1.18737439 7172 311 0 0.56500000 0.56500000 0.56500000
C 6.48122520 21.93493450 -2.53820073 7173 311 0 0.56500000 0.56500000 0.56500000
C 6.82536908 23.29166152 -3.13130518 7174 311 0 0.56500000 0.56500000 0.56500000
C 7.40581427 23.18814012 -4.51737185 7175 311 0 0.56500000 0.56500000 0.56500000
H 6.90175069 20.64205399 1.69013230 7176 311 0 1.00000000 1.00000000 1.00000000
H 5.27891542 20.44511944 0.97695336 7177 311 0 1.00000000 1.00000000 1.00000000
H 5.42113984 20.78270824 2.69833732 7178 311 0 1.00000000 1.00000000 1.00000000
H 6.58086243 23.05751831 1.93698531 7179 311 0 1.00000000 1.00000000 1.00000000
H 4.91927017 22.98114527 1.16300204 7180 311 0 1.00000000 1.00000000 1.00000000
H 7.56663106 21.92156491 0.02508235 7181 311 0 1.00000000 1.00000000 1.00000000
H 6.96004263 23.55117034 -0.48217972 7182 311 0 1.00000000 1.00000000 1.00000000
H 4.95210881 22.63004052 -1.26179308 7183 311 0 1.00000000 1.00000000 1.00000000
H 5.37170487 20.97397972 -0.84770260 7184 311 0 1.00000000 1.00000000 1.00000000
H 5.91929199 21.41522463 -3.28619535 7185 311 0 1.00000000 1.00000000 1.00000000
H 7.42964662 21.34543323 -2.42248463 7186 311 0 1.00000000 1.00000000 1.00000000
H 7.61637225 23.82113987 -2.48609835 7187 311 0 1.00000000 1.00000000 1.00000000
H 5.96087634 23.99492134 -3.13038888 7188 311 0 1.00000000 1.00000000 1.00000000
H 6.83601375 22.58470143 -5.20448957 7189 311 0 1.00000000 1.00000000 1.00000000
H 8.30495010 22.59776555 -4.31780985 7190 311 0 1.00000000 1.00000000 1.00000000
H 7.58149119 24.11198634 -5.11614068 7191 311 0 1.00000000 1.00000000 1.00000000
C 33.20327497 4.96482973 24.07641431 7192 312 0 0.56500000 0.56500000 0.56500000
C 32.97700591 5.89464497 25.28239070 7193 312 0 0.56500000 0.56500000 0.56500000
C 33.71278434 5.48116020 26.54320604 7194 312 0 0.56500000 0.56500000 0.56500000
C 33.47696843 6.43747175 27.75944165 7195 312 0 0.56500000 0.56500000 0.56500000
C 33.73583030 5.69344962 29.09498797 7196 312 0 0.56500000 0.56500000 0.56500000
C 35.21653812 5.16251094 29.22797365 7197 312 0 0.56500000 0.56500000 0.56500000
C 36.32135133 6.21009264 29.42102137 7198 312 0 0.56500000 0.56500000 0.56500000
H 32.89197127 5.52540797 23.16736378 7199 312 0 1.00000000 1.00000000 1.00000000
H 32.59974793 4.05102483 24.17114092 7200 312 0 1.00000000 1.00000000 1.00000000
H 34.26871026 4.71917348 23.92142884 7201 312 0 1.00000000 1.00000000 1.00000000
H 31.94301201 6.07100236 25.56272567 7202 312 0 1.00000000 1.00000000 1.00000000
H 33.29812460 6.82706997 24.91043318 7203 312 0 1.00000000 1.00000000 1.00000000
H 34.76407402 5.33443261 26.34517532 7204 312 0 1.00000000 1.00000000 1.00000000
H 33.41772468 4.50406854 26.90218879 7205 312 0 1.00000000 1.00000000 1.00000000
H 32.42224778 6.77132318 27.82529722 7206 312 0 1.00000000 1.00000000 1.00000000
H 34.15322202 7.24239261 27.59812538 7207 312 0 1.00000000 1.00000000 1.00000000
H 33.07779077 4.84104832 29.24164360 7208 312 0 1.00000000 1.00000000 1.00000000
H 33.53764935 6.41974376 29.86607100 7209 312 0 1.00000000 1.00000000 1.00000000
H 35.43872772 4.54940207 28.34607628 7210 312 0 1.00000000 1.00000000 1.00000000
H 35.27771275 4.47143643 30.12818425 7211 312 0 1.00000000 1.00000000 1.00000000
H 37.27749719 5.82658094 29.68169922 7212 312 0 1.00000000 1.00000000 1.00000000
H 36.07370063 6.89501733 30.17872192 7213 312 0 1.00000000 1.00000000 1.00000000
H 36.36591991 6.81024197 28.48240884 7214 312 0 1.00000000 1.00000000 1.00000000
C 12.14768607 14.01996383 -0.17091027 7215 313 0 0.56500000 0.56500000 0.56500000
C 13.41274041 14.11584069 -0.81441953 7216 313 0 0.56500000 0.56500000 0.56500000
C 14.23800604 15.31404918 -0.33864694 7217 313 0 0.56500000 0.56500000 0.56500000
C 15.64579136 15.41149841 -0.98212259 7218 313 0 0.56500000 0.56500000 0.56500000
C 16.49734443 16.48252042 -0.45459987 7219 313 0 0.56500000 0.56500000 0.56500000
C 17.86567413 16.50965927 -1.17474909 7220 313 0 0.56500000 0.56500000 0.56500000
C 17.85822877 17.18891583 -2.51806937 7221 313 0 0.56500000 0.56500000 0.56500000
H 11.45404480 14.87731925 -0.21330236 7222 313 0 1.00000000 1.00000000 1.00000000
H 12.29986653 13.97595440 0.95618050 7223 313 0 1.00000000 1.00000000 1.00000000
H 11.57213397 13.02225960 -0.22505301 7224 313 0 1.00000000 1.00000000 1.00000000
H 13.24536259 14.32751353 -1.91669527 7225 313 0 1.00000000 1.00000000 1.00000000
H 13.93264479 13.14545589 -0.75851128 7226 313 0 1.00000000 1.00000000 1.00000000
H 14.51588109 15.18872870 0.74444650 7227 313 0 1.00000000 1.00000000 1.00000000
H 13.66153248 16.24123803 -0.55023267 7228 313 0 1.00000000 1.00000000 1.00000000
H 15.45190820 15.82794759 -1.96570707 7229 313 0 1.00000000 1.00000000 1.00000000
H 16.15391092 14.46039944 -0.99889071 7230 313 0 1.00000000 1.00000000 1.00000000
H 16.57665774 16.35113055 0.63701401 7231 313 0 1.00000000 1.00000000 1.00000000
H 16.07862042 17.47606466 -0.68941305 7232 313 0 1.00000000 1.00000000 1.00000000
H 18.19137565 15.42443548 -1.33908365 7233 313 0 1.00000000 1.00000000 1.00000000
H 18.57724507 16.93074072 -0.47206979 7234 313 0 1.00000000 1.00000000 1.00000000
H 17.12059826 16.73812122 -3.22809348 7235 313 0 1.00000000 1.00000000 1.00000000
H 18.87524202 17.08267122 -2.90326323 7236 313 0 1.00000000 1.00000000 1.00000000
H 17.43350301 18.21315246 -2.45597094 7237 313 0 1.00000000 1.00000000 1.00000000
C 1.97421354 28.20585863 27.65730386 7238 314 0 0.56500000 0.56500000 0.56500000
C 3.42249387 28.50839115 27.23926657 7239 314 0 0.56500000 0.56500000 0.56500000
C 3.68119061 29.70590258 26.30913521 7240 314 0 0.56500000 0.56500000 0.56500000
C 3.05602129 29.63017371 24.89061063 7241 314 0 0.56500000 0.56500000 0.56500000
C 3.48446519 30.76679777 23.96566380 7242 314 0 0.56500000 0.56500000 0.56500000
C 4.97382780 30.88550456 23.56494751 7243 314 0 0.56500000 0.56500000 0.56500000
C 5.22280604 32.01830743 22.59542340 7244 314 0 0.56500000 0.56500000 0.56500000
H 1.50101407 29.07094379 28.08131204 7245 314 0 1.00000000 1.00000000 1.00000000
H 2.05999761 27.48850203 28.43093977 7246 314 0 1.00000000 1.00000000 1.00000000
H 1.41966821 27.76792704 26.80664961 7247 314 0 1.00000000 1.00000000 1.00000000
H 3.70853426 27.58581664 26.67500650 7248 314 0 1.00000000 1.00000000 1.00000000
H 4.04648529 28.60277383 28.06933208 7249 314 0 1.00000000 1.00000000 1.00000000
H 4.76872014 29.84333271 26.21973706 7250 314 0 1.00000000 1.00000000 1.00000000
H 3.12314233 30.50391742 26.67762266 7251 314 0 1.00000000 1.00000000 1.00000000
H 1.93346036 29.42482340 25.04072290 7252 314 0 1.00000000 1.00000000 1.00000000
H 3.38651741 28.69970677 24.37250607 7253 314 0 1.00000000 1.00000000 1.00000000
H 3.16183489 31.80544565 24.35378967 7254 314 0 1.00000000 1.00000000 1.00000000
H 2.99875047 30.61619990 22.96757025 7255 314 0 1.00000000 1.00000000 1.00000000
H 5.32050208 29.93816169 23.14145313 7256 314 0 1.00000000 1.00000000 1.00000000
H 5.62491618 31.08491562 24.44767211 7257 314 0 1.00000000 1.00000000 1.00000000
H 4.80284192 32.99120842 22.88766489 7258 314 0 1.00000000 1.00000000 1.00000000
H 4.78683989 31.78989037 21.57774072 7259 314 0 1.00000000 1.00000000 1.00000000
H 6.28917340 32.16007850 22.34249315 7260 314 0 1.00000000 1.00000000 1.00000000
C 14.23404442 13.25435107 25.23291377 7261 315 0 0.56500000 0.56500000 0.56500000
C 13.96902761 14.37880782 26.24162471 7262 315 0 0.56500000 0.56500000 0.56500000
C 12.63118027 15.08443438 25.97938571 7263 315 0 0.56500000 0.56500000 0.56500000
C 12.26098979 16.03208322 27.17077104 7264 315 0 0.56500000 0.56500000 0.56500000
C 10.77626181 16.51351666 27.12625570 7265 315 0 0.56500000 0.56500000 0.56500000
C 10.31790896 17.26211755 28.40792866 7266 315 0 0.56500000 0.56500000 0.56500000
C 10.93103422 18.74402459 28.52047667 7267 315 0 0.56500000 0.56500000 0.56500000
H 13.87567333 13.43226503 24.26456422 7268 315 0 1.00000000 1.00000000 1.00000000
H 13.60644544 12.37712643 25.60923479 7269 315 0 1.00000000 1.00000000 1.00000000
H 15.21366295 12.86017955 25.22183537 7270 315 0 1.00000000 1.00000000 1.00000000
H 14.70146483 15.11777994 26.03125113 7271 315 0 1.00000000 1.00000000 1.00000000
H 14.12283922 14.06168808 27.26830547 7272 315 0 1.00000000 1.00000000 1.00000000
H 11.85730186 14.39755785 25.82251871 7273 315 0 1.00000000 1.00000000 1.00000000
H 12.63970334 15.56837886 24.99261395 7274 315 0 1.00000000 1.00000000 1.00000000
H 13.03676700 16.79375373 27.34463820 7275 315 0 1.00000000 1.00000000 1.00000000
H 12.31261774 15.44802041 28.10670341 7276 315 0 1.00000000 1.00000000 1.00000000
H 10.14234935 15.61793342 27.17342159 7277 315 0 1.00000000 1.00000000 1.00000000
H 10.49502175 17.11367781 26.29771824 7278 315 0 1.00000000 1.00000000 1.00000000
H 10.73029351 16.64855698 29.20961416 7279 315 0 1.00000000 1.00000000 1.00000000
H 9.23121714 17.34030181 28.41082749 7280 315 0 1.00000000 1.00000000 1.00000000
H 10.55876083 19.35416560 29.32247683 7281 315 0 1.00000000 1.00000000 1.00000000
H 10.74932417 19.40658465 27.68486335 7282 315 0 1.00000000 1.00000000 1.00000000
H 12.03825465 18.70954711 28.69890756 7283 315 0 1.00000000 1.00000000 1.00000000
C 33.99390967 41.94922077 15.56868078 7284 316 0 0.56500000 0.56500000 0.56500000
C 34.99604712 41.80067022 14.43072049 7285 316 0 0.56500000 0.56500000 0.56500000
C 36.34946094 42.20753484 14.96710038 7286 316 0 0.56500000 0.56500000 0.56500000
C 36.80982709 41.41996976 16.20878221 7287 316 0 0.56500000 0.56500000 0.56500000
C 38.37249135 41.71288342 16.38195067 7288 316 0 0.56500000 0.56500000 0.56500000
C 38.90159620 40.77028826 17.44190764 7289 316 0 0.56500000 0.56500000 0.56500000
C 38.74010555 39.34357113 17.08063566 7290 316 0 0.56500000 0.56500000 0.56500000
H 34.40975259 41.75690129 16.51839762 7291 316 0 1.00000000 1.00000000 1.00000000
H 33.18498966 41.15425049 15.47270410 7292 316 0 1.00000000 1.00000000 1.00000000
H 33.56652395 42.96684596 15.54698874 7293 316 0 1.00000000 1.00000000 1.00000000
H 34.71934825 42.38858915 13.55477799 7294 316 0 1.00000000 1.00000000 1.00000000
H 34.98252737 40.79258956 14.00883819 7295 316 0 1.00000000 1.00000000 1.00000000
H 36.24805662 43.32098223 15.17190950 7296 316 0 1.00000000 1.00000000 1.00000000
H 37.05773463 42.11468089 14.15989769 7297 316 0 1.00000000 1.00000000 1.00000000
H 36.63682294 40.34003299 16.13380152 7298 316 0 1.00000000 1.00000000 1.00000000
H 36.29427020 41.77499021 17.10628375 7299 316 0 1.00000000 1.00000000 1.00000000
H 38.42494390 42.77224821 16.80312326 7300 316 0 1.00000000 1.00000000 1.00000000
H 38.91181412 41.56307992 15.45539997 7301 316 0 1.00000000 1.00000000 1.00000000
H 38.44021792 41.04913727 18.44941553 7302 316 0 1.00000000 1.00000000 1.00000000
H 40.00425575 40.97804091 17.61969718 7303 316 0 1.00000000 1.00000000 1.00000000
H 39.36030652 38.66250159 17.66580642 7304 316 0 1.00000000 1.00000000 1.00000000
H 39.09962696 39.24712098 16.00597730 7305 316 0 1.00000000 1.00000000 1.00000000
H 37.69093926 39.10040879 17.11932924 7306 316 0 1.00000000 1.00000000 1.00000000
C 7.01449696 26.85748898 28.33476703 7307 317 0 0.56500000 0.56500000 0.56500000
C 7.50707092 26.40316022 29.74053235 7308 317 0 0.56500000 0.56500000 0.56500000
C 7.46371141 27.56914103 30.67340858 7309 317 0 0.56500000 0.56500000 0.56500000
C 7.49631175 27.03607651 32.12830954 7310 317 0 0.56500000 0.56500000 0.56500000
C 8.18039274 27.89411980 33.16929974 7311 317 0 0.56500000 0.56500000 0.56500000
C 7.51115815 29.28428891 33.25478781 7312 317 0 0.56500000 0.56500000 0.56500000
C 8.50603811 30.37127780 33.61921175 7313 317 0 0.56500000 0.56500000 0.56500000
H 5.99074522 27.20731974 28.52789798 7314 317 0 1.00000000 1.00000000 1.00000000
H 6.88842019 25.93745891 27.79371045 7315 317 0 1.00000000 1.00000000 1.00000000
H 7.71737866 27.55100904 27.89251199 7316 317 0 1.00000000 1.00000000 1.00000000
H 8.46556521 25.93682860 29.69647235 7317 317 0 1.00000000 1.00000000 1.00000000
H 6.74430884 25.66929864 30.06098542 7318 317 0 1.00000000 1.00000000 1.00000000
H 6.45211195 27.98068332 30.63633570 7319 317 0 1.00000000 1.00000000 1.00000000
H 8.25724406 28.34826590 30.54216887 7320 317 0 1.00000000 1.00000000 1.00000000
H 8.06220751 26.05401904 32.04157582 7321 317 0 1.00000000 1.00000000 1.00000000
H 6.47113699 26.81367034 32.49392527 7322 317 0 1.00000000 1.00000000 1.00000000
H 9.21102334 28.12691411 32.98019263 7323 317 0 1.00000000 1.00000000 1.00000000
H 8.16238260 27.41574736 34.12484251 7324 317 0 1.00000000 1.00000000 1.00000000
H 6.68985693 29.31241400 33.99606262 7325 317 0 1.00000000 1.00000000 1.00000000
H 6.92216054 29.58609391 32.30686685 7326 317 0 1.00000000 1.00000000 1.00000000
H 8.83021854 30.26479516 34.62606756 7327 317 0 1.00000000 1.00000000 1.00000000
H 7.98965205 31.34376389 33.50171717 7328 317 0 1.00000000 1.00000000 1.00000000
H 9.34765488 30.31437936 32.99661857 7329 317 0 1.00000000 1.00000000 1.00000000
C 4.21256747 40.80590090 2.97603335 7330 318 0 0.56500000 0.56500000 0.56500000
C 3.85638377 39.68370392 1.95781656 7331 318 0 0.56500000 0.56500000 0.56500000
C 3.05046933 38.50334471 2.45822248 7332 318 0 0.56500000 0.56500000 0.56500000
C 1.61125243 38.95575595 2.77187777 7333 318 0 0.56500000 0.56500000 0.56500000
C 0.79853436 37.75868048 3.36811966 7334 318 0 0.56500000 0.56500000 0.56500000
C 1.04212469 36.38966972 2.85503024 7335 318 0 0.56500000 0.56500000 0.56500000
C 0.16495599 35.48253314 3.79071901 7336 318 0 0.56500000 0.56500000 0.56500000
H 4.65917363 41.70194458 2.51536287 7337 318 0 1.00000000 1.00000000 1.00000000
H 4.99685212 40.40323742 3.67158652 7338 318 0 1.00000000 1.00000000 1.00000000
H 3.39701376 41.10051981 3.64037342 7339 318 0 1.00000000 1.00000000 1.00000000
H 4.74934023 39.32352535 1.55031479 7340 318 0 1.00000000 1.00000000 1.00000000
H 3.28152221 40.09734085 1.13016033 7341 318 0 1.00000000 1.00000000 1.00000000
H 3.53519098 38.09843602 3.42779454 7342 318 0 1.00000000 1.00000000 1.00000000
H 2.96850275 37.65785328 1.74762649 7343 318 0 1.00000000 1.00000000 1.00000000
H 1.10992095 39.37046522 1.90089558 7344 318 0 1.00000000 1.00000000 1.00000000
H 1.60099057 39.71262062 3.57015771 7345 318 0 1.00000000 1.00000000 1.00000000
H -0.22802835 38.02016512 3.36394112 7346 318 0 1.00000000 1.00000000 1.00000000
H 1.05589091 37.69488302 4.43233905 7347 318 0 1.00000000 1.00000000 1.00000000
H 2.08519420 36.07339346 3.02497693 7348 318 0 1.00000000 1.00000000 1.00000000
H 0.95161375 36.30133898 1.73838255 7349 318 0 1.00000000 1.00000000 1.00000000
H 0.52299984 35.68118765 4.73117160 7350 318 0 1.00000000 1.00000000 1.00000000
H 0.24236118 34.43415534 3.63029765 7351 318 0 1.00000000 1.00000000 1.00000000
H -0.86974166 35.88063967 3.74589943 7352 318 0 1.00000000 1.00000000 1.00000000
C 37.42527869 30.90150992 31.16530487 7353 319 0 0.56500000 0.56500000 0.56500000
C 37.78692779 29.55876686 30.64790155 7354 319 0 0.56500000 0.56500000 0.56500000
C 38.95336956 29.58296887 29.69195827 7355 319 0 0.56500000 0.56500000 0.56500000
C 39.60531608 28.18355523 29.56728831 7356 319 0 0.56500000 0.56500000 0.56500000
C 39.95350827 27.48886500 30.85448104 7357 319 0 0.56500000 0.56500000 0.56500000
C 40.86821256 26.35482115 30.51915602 7358 319 0 0.56500000 0.56500000 0.56500000
C 41.26202599 25.52779466 31.70193104 7359 319 0 0.56500000 0.56500000 0.56500000
H 37.44422556 31.62281125 30.29295014 7360 319 0 1.00000000 1.00000000 1.00000000
H 38.26929479 31.34606384 31.70354521 7361 319 0 1.00000000 1.00000000 1.00000000
H 36.51288467 30.94764696 31.73176130 7362 319 0 1.00000000 1.00000000 1.00000000
H 36.93503250 29.14956307 30.08868442 7363 319 0 1.00000000 1.00000000 1.00000000
H 37.97831470 28.89244683 31.46142623 7364 319 0 1.00000000 1.00000000 1.00000000
H 39.69325395 30.32069072 29.99074307 7365 319 0 1.00000000 1.00000000 1.00000000
H 38.67663517 29.86587860 28.70492128 7366 319 0 1.00000000 1.00000000 1.00000000
H 40.52950322 28.32705946 28.99495015 7367 319 0 1.00000000 1.00000000 1.00000000
H 39.00027516 27.50709192 28.98636912 7368 319 0 1.00000000 1.00000000 1.00000000
H 39.05277323 27.01949872 31.21258460 7369 319 0 1.00000000 1.00000000 1.00000000
H 40.32369260 28.15769463 31.65867646 7370 319 0 1.00000000 1.00000000 1.00000000
H 41.73808584 26.76994234 29.98633995 7371 319 0 1.00000000 1.00000000 1.00000000
H 40.35112575 25.61218981 29.77253727 7372 319 0 1.00000000 1.00000000 1.00000000
H 41.88982515 24.67370202 31.48567685 7373 319 0 1.00000000 1.00000000 1.00000000
H 40.45407496 25.12840716 32.32979219 7374 319 0 1.00000000 1.00000000 1.00000000
H 41.81135113 26.17056875 32.37078877 7375 319 0 1.00000000 1.00000000 1.00000000
C 13.84264573 10.33032207 15.12776832 7376 320 0 0.56500000 0.56500000 0.56500000
C 14.61829473 10.55496266 13.86977736 7377 320 0 0.56500000 0.56500000 0.56500000
C 13.83356229 11.21204618 12.69140002 7378 320 0 0.56500000 0.56500000 0.56500000
C 13.07607739 12.49668721 13.12737277 7379 320 0 0.56500000 0.56500000 0.56500000
C 12.54585775 13.24265357 11.89979286 7380 320 0 0.56500000 0.56500000 0.56500000
C 13.55895592 14.28961366 11.50498721 7381 320 0 0.56500000 0.56500000 0.56500000
C 13.35641825 14.80883908 10.09423863 7382 320 0 0.56500000 0.56500000 0.56500000
H 12.84763605 9.89420481 14.96897743 7383 320 0 1.00000000 1.00000000 1.00000000
H 13.56086669 11.34804407 15.50854407 7384 320 0 1.00000000 1.00000000 1.00000000
H 14.44675669 9.81765113 15.91306207 7385 320 0 1.00000000 1.00000000 1.00000000
H 15.01470541 9.56433851 13.54952365 7386 320 0 1.00000000 1.00000000 1.00000000
H 15.49149616 11.14296541 14.12420737 7387 320 0 1.00000000 1.00000000 1.00000000
H 13.08554956 10.50446279 12.33193948 7388 320 0 1.00000000 1.00000000 1.00000000
H 14.53025107 11.45355431 11.95030490 7389 320 0 1.00000000 1.00000000 1.00000000
H 13.73603385 13.13714736 13.73187446 7390 320 0 1.00000000 1.00000000 1.00000000
H 12.15721522 12.21409683 13.76425895 7391 320 0 1.00000000 1.00000000 1.00000000
H 11.52920210 13.66031647 11.99183882 7392 320 0 1.00000000 1.00000000 1.00000000
H 12.53619307 12.59011544 11.08425735 7393 320 0 1.00000000 1.00000000 1.00000000
H 14.55827438 13.85122439 11.50532378 7394 320 0 1.00000000 1.00000000 1.00000000
H 13.63741452 15.15548021 12.21524197 7395 320 0 1.00000000 1.00000000 1.00000000
H 12.26528056 15.09782235 9.95843709 7396 320 0 1.00000000 1.00000000 1.00000000
H 13.56786876 14.01683192 9.37999119 7397 320 0 1.00000000 1.00000000 1.00000000
H 13.98886888 15.67542631 9.86538469 7398 320 0 1.00000000 1.00000000 1.00000000
C 33.64158809 39.24952222 31.33586861 7399 321 0 0.56500000 0.56500000 0.56500000
C 33.16277532 40.17715268 30.23508698 7400 321 0 0.56500000 0.56500000 0.56500000
C 32.22190895 39.51057100 29.17803503 7401 321 0 0.56500000 0.56500000 0.56500000
C 31.30123083 40.51347748 28.47629736 7402 321 0 0.56500000 0.56500000 0.56500000
C 30.10595117 39.85797318 27.71309371 7403 321 0 0.56500000 0.56500000 0.56500000
C 28.76922413 40.55860337 27.51255519 7404 321 0 0.56500000 0.56500000 0.56500000
C 27.75868670 39.54665575 26.97244739 7405 321 0 0.56500000 0.56500000 0.56500000
H 34.36496014 38.50687740 31.00700608 7406 321 0 1.00000000 1.00000000 1.00000000
H 32.81320691 38.66860063 31.83891182 7407 321 0 1.00000000 1.00000000 1.00000000
H 34.26812315 39.79634743 32.03445224 7408 321 0 1.00000000 1.00000000 1.00000000
H 34.11274719 40.62057693 29.75765199 7409 321 0 1.00000000 1.00000000 1.00000000
H 32.70407866 41.07579018 30.68889572 7410 321 0 1.00000000 1.00000000 1.00000000
H 31.59765380 38.86036217 29.84655762 7411 321 0 1.00000000 1.00000000 1.00000000
H 32.82889850 38.90076876 28.44612252 7412 321 0 1.00000000 1.00000000 1.00000000
H 31.96953207 41.12634125 27.88792358 7413 321 0 1.00000000 1.00000000 1.00000000
H 30.85437402 41.18642525 29.22991444 7414 321 0 1.00000000 1.00000000 1.00000000
H 29.89951923 38.99371877 28.30943386 7415 321 0 1.00000000 1.00000000 1.00000000
H 30.44097165 39.47501584 26.77596662 7416 321 0 1.00000000 1.00000000 1.00000000
H 28.86910924 41.41880170 26.84986640 7417 321 0 1.00000000 1.00000000 1.00000000
H 28.32044454 40.98632788 28.44168819 7418 321 0 1.00000000 1.00000000 1.00000000
H 28.19253832 39.04459857 26.15223002 7419 321 0 1.00000000 1.00000000 1.00000000
H 26.96016554 40.19024931 26.64312246 7420 321 0 1.00000000 1.00000000 1.00000000
H 27.51910447 38.81546962 27.69763496 7421 321 0 1.00000000 1.00000000 1.00000000
C 22.30407776 13.55734637 13.93830482 7422 322 0 0.56500000 0.56500000 0.56500000
C 21.39838870 12.36162192 13.85252608 7423 322 0 0.56500000 0.56500000 0.56500000
C 21.88826832 11.25036023 12.87208920 7424 322 0 0.56500000 0.56500000 0.56500000
C 20.87886677 10.04464116 12.92444116 7425 322 0 0.56500000 0.56500000 0.56500000
C 20.89230771 9.22127436 11.67183874 7426 322 0 0.56500000 0.56500000 0.56500000
C 22.14509067 8.33115711 11.77975487 7427 322 0 0.56500000 0.56500000 0.56500000
C 21.79780029 7.07304049 12.53069048 7428 322 0 0.56500000 0.56500000 0.56500000
H 23.23951797 13.28109500 14.46872464 7429 322 0 1.00000000 1.00000000 1.00000000
H 21.79329268 14.31129530 14.51669361 7430 322 0 1.00000000 1.00000000 1.00000000
H 22.54146682 13.87392283 12.91394518 7431 322 0 1.00000000 1.00000000 1.00000000
H 20.39791112 12.55437166 13.43712396 7432 322 0 1.00000000 1.00000000 1.00000000
H 21.09668533 12.07254581 14.87367573 7433 322 0 1.00000000 1.00000000 1.00000000
H 22.93365140 11.09193480 13.06039875 7434 322 0 1.00000000 1.00000000 1.00000000
H 21.80998200 11.70555233 11.90698966 7435 322 0 1.00000000 1.00000000 1.00000000
H 19.90304358 10.42750788 13.17496295 7436 322 0 1.00000000 1.00000000 1.00000000
H 21.19607178 9.38790265 13.73943365 7437 322 0 1.00000000 1.00000000 1.00000000
H 20.99543877 9.89949342 10.85713047 7438 322 0 1.00000000 1.00000000 1.00000000
H 20.03080384 8.57162047 11.38610374 7439 322 0 1.00000000 1.00000000 1.00000000
H 23.05724792 8.75693933 12.26361171 7440 322 0 1.00000000 1.00000000 1.00000000
H 22.38294783 7.98987807 10.80137613 7441 322 0 1.00000000 1.00000000 1.00000000
H 21.09637305 6.40388935 12.07344207 7442 322 0 1.00000000 1.00000000 1.00000000
H 21.44936320 7.24557805 13.52603171 7443 322 0 1.00000000 1.00000000 1.00000000
H 22.76754850 6.60507359 12.69809692 7444 322 0 1.00000000 1.00000000 1.00000000
C 7.70021959 12.11246089 42.19873060 7445 323 0 0.56500000 0.56500000 0.56500000
C 7.83904626 13.60092847 41.80924455 7446 323 0 0.56500000 0.56500000 0.56500000
C 9.17253442 13.76705204 41.02726003 7447 323 0 0.56500000 0.56500000 0.56500000
C 9.27755634 15.25256335 40.58178995 7448 323 0 0.56500000 0.56500000 0.56500000
C 10.32670217 15.77583578 39.63538090 7449 323 0 0.56500000 0.56500000 0.56500000
C 10.44303213 15.05910019 38.34077535 7450 323 0 0.56500000 0.56500000 0.56500000
C 11.44846944 15.75937838 37.42155894 7451 323 0 0.56500000 0.56500000 0.56500000
H 6.69915471 11.74796876 42.40416440 7452 323 0 1.00000000 1.00000000 1.00000000
H 8.40926067 11.82873196 43.02970778 7453 323 0 1.00000000 1.00000000 1.00000000
H 8.05463661 11.48654231 41.34590783 7454 323 0 1.00000000 1.00000000 1.00000000
H 7.97384621 14.37887390 42.58336652 7455 323 0 1.00000000 1.00000000 1.00000000
H 7.05413322 13.95113017 41.12833723 7456 323 0 1.00000000 1.00000000 1.00000000
H 9.22100972 13.05982723 40.12537926 7457 323 0 1.00000000 1.00000000 1.00000000
H 10.13728930 13.45283356 41.55395260 7458 323 0 1.00000000 1.00000000 1.00000000
H 9.34998850 15.79300528 41.57716356 7459 323 0 1.00000000 1.00000000 1.00000000
H 8.28333579 15.40630215 40.17096352 7460 323 0 1.00000000 1.00000000 1.00000000
H 11.30427361 15.81834814 40.10816011 7461 323 0 1.00000000 1.00000000 1.00000000
H 10.24622568 16.86937219 39.34903030 7462 323 0 1.00000000 1.00000000 1.00000000
H 9.46175846 14.93098734 37.77982573 7463 323 0 1.00000000 1.00000000 1.00000000
H 10.68697835 14.05276750 38.59025239 7464 323 0 1.00000000 1.00000000 1.00000000
H 11.18695402 16.84800176 37.40935797 7465 323 0 1.00000000 1.00000000 1.00000000
H 11.55212223 15.40163173 36.38662464 7466 323 0 1.00000000 1.00000000 1.00000000
H 12.44227975 15.65398599 37.78505262 7467 323 0 1.00000000 1.00000000 1.00000000
C 39.53399428 44.41621247 7.42441847 7468 324 0 0.56500000 0.56500000 0.56500000
C 38.82707160 45.34556465 8.44401587 7469 324 0 0.56500000 0.56500000 0.56500000
C 38.00870183 46.45838889 7.85578547 7470 324 0 0.56500000 0.56500000 0.56500000
C 36.80755011 46.74022373 8.72646120 7471 324 0 0.56500000 0.56500000 0.56500000
C 35.78166964 47.90953385 8.33078898 7472 324 0 0.56500000 0.56500000 0.56500000
C 34.51511023 47.97405647 9.19128229 7473 324 0 0.56500000 0.56500000 0.56500000
C 33.48059072 49.02034159 8.83207651 7474 324 0 0.56500000 0.56500000 0.56500000
H 38.83071013 43.85408643 6.82980945 7475 324 0 1.00000000 1.00000000 1.00000000
H 40.22708168 43.78124501 7.99058831 7476 324 0 1.00000000 1.00000000 1.00000000
H 40.20543900 45.03758831 6.72811135 7477 324 0 1.00000000 1.00000000 1.00000000
H 39.46641461 45.84969457 9.18659522 7478 324 0 1.00000000 1.00000000 1.00000000
H 38.13467127 44.78704874 9.10480964 7479 324 0 1.00000000 1.00000000 1.00000000
H 37.53911835 46.23977054 6.84169744 7480 324 0 1.00000000 1.00000000 1.00000000
H 38.56245128 47.42004808 7.67337718 7481 324 0 1.00000000 1.00000000 1.00000000
H 36.97217744 46.88893459 9.82583662 7482 324 0 1.00000000 1.00000000 1.00000000
H 36.29844975 45.77965843 8.74445971 7483 324 0 1.00000000 1.00000000 1.00000000
H 35.48547719 47.72853905 7.21058487 7484 324 0 1.00000000 1.00000000 1.00000000
H 36.31506990 48.87676080 8.34171188 7485 324 0 1.00000000 1.00000000 1.00000000
H 34.82864687 48.04776160 10.21471452 7486 324 0 1.00000000 1.00000000 1.00000000
H 33.97705873 47.00291652 9.06955150 7487 324 0 1.00000000 1.00000000 1.00000000
H 32.70250975 48.85825624 9.57960209 7488 324 0 1.00000000 1.00000000 1.00000000
H 33.07485970 48.87888802 7.81281484 7489 324 0 1.00000000 1.00000000 1.00000000
H 33.84881931 50.06164327 8.81972695 7490 324 0 1.00000000 1.00000000 1.00000000
C 20.16595968 29.22964296 8.30337821 7491 325 0 0.56500000 0.56500000 0.56500000
C 20.02099201 29.54908951 9.81219281 7492 325 0 0.56500000 0.56500000 0.56500000
C 20.85717264 28.71086438 10.75474484 7493 325 0 0.56500000 0.56500000 0.56500000
C 20.38146125 27.34803183 10.91749346 7494 325 0 0.56500000 0.56500000 0.56500000
C 21.43834562 26.40988219 11.62898679 7495 325 0 0.56500000 0.56500000 0.56500000
C 20.86557766 25.04531479 11.87210212 7496 325 0 0.56500000 0.56500000 0.56500000
C 21.75220614 23.85212009 11.70793581 7497 325 0 0.56500000 0.56500000 0.56500000
H 21.16838840 29.38019365 7.99627374 7498 325 0 1.00000000 1.00000000 1.00000000
H 19.53544024 29.86612099 7.76106360 7499 325 0 1.00000000 1.00000000 1.00000000
H 19.95043851 28.23707921 8.07226527 7500 325 0 1.00000000 1.00000000 1.00000000
H 18.92355130 29.37364798 9.95128797 7501 325 0 1.00000000 1.00000000 1.00000000
H 20.05750758 30.70994124 9.93372255 7502 325 0 1.00000000 1.00000000 1.00000000
H 20.91161154 29.19616332 11.67942472 7503 325 0 1.00000000 1.00000000 1.00000000
H 21.92883587 28.65169059 10.37066096 7504 325 0 1.00000000 1.00000000 1.00000000
H 20.18772397 26.82041746 9.92370199 7505 325 0 1.00000000 1.00000000 1.00000000
H 19.43424872 27.25413546 11.45060591 7506 325 0 1.00000000 1.00000000 1.00000000
H 21.72090278 26.92247873 12.55977238 7507 325 0 1.00000000 1.00000000 1.00000000
H 22.27698592 26.49934765 10.94275099 7508 325 0 1.00000000 1.00000000 1.00000000
H 19.92040084 24.97980694 11.35442040 7509 325 0 1.00000000 1.00000000 1.00000000
H 20.55407036 24.93241665 12.89271082 7510 325 0 1.00000000 1.00000000 1.00000000
H 22.05611593 23.64531947 10.71360019 7511 325 0 1.00000000 1.00000000 1.00000000
H 21.27816660 22.92116153 12.11672019 7512 325 0 1.00000000 1.00000000 1.00000000
H 22.63758998 24.00681303 12.35764432 7513 325 0 1.00000000 1.00000000 1.00000000
C 9.84366083 32.75486634 15.33209067 7514 326 0 0.56500000 0.56500000 0.56500000
C 9.89101178 34.14617155 15.98187541 7515 326 0 0.56500000 0.56500000 0.56500000
C 10.05232819 35.14720675 14.81521101 7516 326 0 0.56500000 0.56500000 0.56500000
C 10.14180108 36.56430760 15.24231399 7517 326 0 0.56500000 0.56500000 0.56500000
C 10.10484105 37.64070327 14.16879513 7518 326 0 0.56500000 0.56500000 0.56500000
C 9.99361188 39.08864386 14.62298837 7519 326 0 0.56500000 0.56500000 0.56500000
C 10.28556962 40.05874891 13.43398450 7520 326 0 0.56500000 0.56500000 0.56500000
H 8.85690887 32.74330712 14.79290263 7521 326 0 1.00000000 1.00000000 1.00000000
H 9.85240682 31.92988777 16.03628646 7522 326 0 1.00000000 1.00000000 1.00000000
H 10.59764340 32.48851900 14.57626355 7523 326 0 1.00000000 1.00000000 1.00000000
H 10.71633180 34.28581081 16.67739728 7524 326 0 1.00000000 1.00000000 1.00000000
H 8.90125117 34.39171650 16.41142456 7525 326 0 1.00000000 1.00000000 1.00000000
H 9.21042260 34.94263376 14.17254423 7526 326 0 1.00000000 1.00000000 1.00000000
H 11.02459505 34.98164212 14.22366105 7527 326 0 1.00000000 1.00000000 1.00000000
H 11.06670868 36.67533699 15.92219391 7528 326 0 1.00000000 1.00000000 1.00000000
H 9.33014867 36.70957374 15.94579174 7529 326 0 1.00000000 1.00000000 1.00000000
H 9.16641064 37.37952857 13.64221470 7530 326 0 1.00000000 1.00000000 1.00000000
H 10.99667536 37.49243678 13.42221698 7531 326 0 1.00000000 1.00000000 1.00000000
H 10.71853693 39.33009245 15.41938002 7532 326 0 1.00000000 1.00000000 1.00000000
H 9.05081150 39.30943126 15.09782811 7533 326 0 1.00000000 1.00000000 1.00000000
H 9.45935237 40.11653011 12.79463166 7534 326 0 1.00000000 1.00000000 1.00000000
H 11.23130103 39.76706713 12.93008457 7535 326 0 1.00000000 1.00000000 1.00000000
H 10.45944429 41.06099158 13.90382197 7536 326 0 1.00000000 1.00000000 1.00000000
C 23.03113814 21.86707166 26.53431709 7537 327 0 0.56500000 0.56500000 0.56500000
C 22.94760013 22.49329417 25.08754309 7538 327 0 0.56500000 0.56500000 0.56500000
C 23.94567561 23.57186287 24.76350536 7539 327 0 0.56500000 0.56500000 0.56500000
C 24.01947805 23.85377936 23.29840601 7540 327 0 0.56500000 0.56500000 0.56500000
C 24.89167497 25.01372288 22.96278150 7541 327 0 0.56500000 0.56500000 0.56500000
C 24.17982387 26.33911762 23.04857509 7542 327 0 0.56500000 0.56500000 0.56500000
C 25.24756186 27.42802880 22.79120359 7543 327 0 0.56500000 0.56500000 0.56500000
H 22.17009335 21.24787796 26.65960298 7544 327 0 1.00000000 1.00000000 1.00000000
H 23.21365706 22.60053679 27.35981277 7545 327 0 1.00000000 1.00000000 1.00000000
H 23.90966291 21.12636946 26.58320629 7546 327 0 1.00000000 1.00000000 1.00000000
H 21.91512989 22.72224313 24.91804417 7547 327 0 1.00000000 1.00000000 1.00000000
H 23.13647859 21.72472296 24.29473476 7548 327 0 1.00000000 1.00000000 1.00000000
H 24.94237566 23.08831873 25.09885500 7549 327 0 1.00000000 1.00000000 1.00000000
H 23.73306564 24.42704505 25.39667702 7550 327 0 1.00000000 1.00000000 1.00000000
H 23.00903933 23.87911288 22.94573527 7551 327 0 1.00000000 1.00000000 1.00000000
H 24.42258676 22.93360330 22.87914806 7552 327 0 1.00000000 1.00000000 1.00000000
H 25.37644810 24.89130994 21.97818941 7553 327 0 1.00000000 1.00000000 1.00000000
H 25.62050605 25.03295290 23.69614362 7554 327 0 1.00000000 1.00000000 1.00000000
H 23.68564768 26.54385414 24.00747926 7555 327 0 1.00000000 1.00000000 1.00000000
H 23.40166992 26.41116828 22.24636051 7556 327 0 1.00000000 1.00000000 1.00000000
H 25.02603126 28.54263388 22.92539740 7557 327 0 1.00000000 1.00000000 1.00000000
H 25.56726290 27.32257659 21.79821664 7558 327 0 1.00000000 1.00000000 1.00000000
H 26.14792564 27.18341509 23.37096076 7559 327 0 1.00000000 1.00000000 1.00000000
C 25.59176244 29.25227021 31.89051232 7560 328 0 0.56500000 0.56500000 0.56500000
C 26.75911470 30.07922772 32.35334418 7561 328 0 0.56500000 0.56500000 0.56500000
C 28.15754615 29.39675685 32.32036581 7562 328 0 0.56500000 0.56500000 0.56500000
C 29.16931198 30.51375858 32.41885653 7563 328 0 0.56500000 0.56500000 0.56500000
C 30.64807526 30.05843618 32.49349493 7564 328 0 0.56500000 0.56500000 0.56500000
C 31.59064261 31.20558764 32.73522423 7565 328 0 0.56500000 0.56500000 0.56500000
C 33.10497080 30.86149372 32.66490568 7566 328 0 0.56500000 0.56500000 0.56500000
H 25.51800156 29.14448887 30.82189153 7567 328 0 1.00000000 1.00000000 1.00000000
H 24.68683592 29.82842825 31.98796595 7568 328 0 1.00000000 1.00000000 1.00000000
H 25.62170480 28.30176510 32.44242621 7569 328 0 1.00000000 1.00000000 1.00000000
H 26.55619021 30.50464731 33.35373656 7570 328 0 1.00000000 1.00000000 1.00000000
H 26.85091010 30.92732510 31.65889066 7571 328 0 1.00000000 1.00000000 1.00000000
H 28.29535054 28.88005671 31.34737545 7572 328 0 1.00000000 1.00000000 1.00000000
H 28.26177573 28.52456815 33.07068347 7573 328 0 1.00000000 1.00000000 1.00000000
H 28.96011692 31.12133107 33.29475043 7574 328 0 1.00000000 1.00000000 1.00000000
H 29.09277168 31.12891330 31.59275549 7575 328 0 1.00000000 1.00000000 1.00000000
H 30.85344163 29.58118770 31.53229660 7576 328 0 1.00000000 1.00000000 1.00000000
H 30.82637819 29.33122160 33.30469319 7577 328 0 1.00000000 1.00000000 1.00000000
H 31.23571445 31.47690881 33.72933769 7578 328 0 1.00000000 1.00000000 1.00000000
H 31.40520834 32.08444697 32.09429470 7579 328 0 1.00000000 1.00000000 1.00000000
H 33.63601655 31.73123354 33.10284761 7580 328 0 1.00000000 1.00000000 1.00000000
H 33.30967275 30.74123533 31.58969139 7581 328 0 1.00000000 1.00000000 1.00000000
H 33.24329311 29.92889188 33.20928782 7582 328 0 1.00000000 1.00000000 1.00000000
C 29.19917416 49.78059697 8.66156320 7583 329 0 0.56500000 0.56500000 0.56500000
C 27.79242495 49.39110149 9.25238163 7584 329 0 0.56500000 0.56500000 0.56500000
C 27.58060102 47.88795981 9.53784576 7585 329 0 0.56500000 0.56500000 0.56500000
C 26.24724052 47.69000147 10.31017502 7586 329 0 0.56500000 0.56500000 0.56500000
C 25.93912776 46.28176136 10.61635283 7587 329 0 0.56500000 0.56500000 0.56500000
C 26.88750891 45.61685858 11.65671912 7588 329 0 0.56500000 0.56500000 0.56500000
C 26.40117961 44.16959933 11.83421250 7589 329 0 0.56500000 0.56500000 0.56500000
H 29.11860955 50.80736796 8.40038550 7590 329 0 1.00000000 1.00000000 1.00000000
H 29.53389612 49.07811911 7.87132082 7591 329 0 1.00000000 1.00000000 1.00000000
H 29.99867145 49.64338712 9.37070028 7592 329 0 1.00000000 1.00000000 1.00000000
H 26.96960278 49.71162505 8.66219620 7593 329 0 1.00000000 1.00000000 1.00000000
H 27.76579497 49.89681645 10.17844192 7594 329 0 1.00000000 1.00000000 1.00000000
H 28.42857067 47.66768779 10.21654586 7595 329 0 1.00000000 1.00000000 1.00000000
H 27.65852462 47.37495225 8.60205908 7596 329 0 1.00000000 1.00000000 1.00000000
H 25.47455652 48.10137728 9.64742149 7597 329 0 1.00000000 1.00000000 1.00000000
H 26.32298129 48.29613353 11.20475436 7598 329 0 1.00000000 1.00000000 1.00000000
H 26.02507818 45.59996085 9.73744799 7599 329 0 1.00000000 1.00000000 1.00000000
H 24.92012204 46.26278964 11.03655399 7600 329 0 1.00000000 1.00000000 1.00000000
H 26.81944742 46.15411769 12.63870933 7601 329 0 1.00000000 1.00000000 1.00000000
H 27.88529093 45.60342785 11.28369797 7602 329 0 1.00000000 1.00000000 1.00000000
H 25.27461932 44.24958556 11.89523563 7603 329 0 1.00000000 1.00000000 1.00000000
H 26.77977930 43.67004312 12.68953139 7604 329 0 1.00000000 1.00000000 1.00000000
H 26.66705670 43.63737083 10.90075954 7605 329 0 1.00000000 1.00000000 1.00000000
C 18.88457686 39.28726313 33.30517708 7606 330 0 0.56500000 0.56500000 0.56500000
C 19.62732496 38.92978449 34.53253909 7607 330 0 0.56500000 0.56500000 0.56500000
C 18.84645728 38.90432085 35.88517979 7608 330 0 0.56500000 0.56500000 0.56500000
C 18.08637048 37.52847090 36.00817139 7609 330 0 0.56500000 0.56500000 0.56500000
C 17.10792789 37.47361147 37.30011531 7610 330 0 0.56500000 0.56500000 0.56500000
C 16.13074826 36.26980550 37.36649193 7611 330 0 0.56500000 0.56500000 0.56500000
C 15.40089849 36.07494031 38.63350223 7612 330 0 0.56500000 0.56500000 0.56500000
H 19.60352359 39.37289296 32.42619197 7613 330 0 1.00000000 1.00000000 1.00000000
H 18.29282623 40.16119537 33.36984135 7614 330 0 1.00000000 1.00000000 1.00000000
H 18.21937927 38.48748664 33.03486713 7615 330 0 1.00000000 1.00000000 1.00000000
H 20.41208721 39.62350157 34.74662551 7616 330 0 1.00000000 1.00000000 1.00000000
H 20.26331137 38.02429786 34.42459551 7617 330 0 1.00000000 1.00000000 1.00000000
H 18.06473383 39.62120479 35.77367691 7618 330 0 1.00000000 1.00000000 1.00000000
H 19.38947339 39.12920065 36.79901900 7619 330 0 1.00000000 1.00000000 1.00000000
H 18.87838912 36.70641335 35.96015319 7620 330 0 1.00000000 1.00000000 1.00000000
H 17.49064668 37.39149492 35.11669618 7621 330 0 1.00000000 1.00000000 1.00000000
H 16.46769501 38.36286532 37.27751624 7622 330 0 1.00000000 1.00000000 1.00000000
H 17.69047315 37.54254245 38.31012612 7623 330 0 1.00000000 1.00000000 1.00000000
H 16.72420615 35.39724737 37.06575253 7624 330 0 1.00000000 1.00000000 1.00000000
H 15.54923891 36.32986346 36.46908348 7625 330 0 1.00000000 1.00000000 1.00000000
H 14.69087236 35.18936540 38.70637875 7626 330 0 1.00000000 1.00000000 1.00000000
H 14.83877720 36.91246073 39.03433924 7627 330 0 1.00000000 1.00000000 1.00000000
H 16.14179435 35.90415368 39.49501105 7628 330 0 1.00000000 1.00000000 1.00000000
C 22.39840452 23.18135973 15.59778720 7629 331 0 0.56500000 0.56500000 0.56500000
C 23.08441282 21.75176943 15.50630905 7630 331 0 0.56500000 0.56500000 0.56500000
C 23.19021355 21.23730689 14.06604990 7631 331 0 0.56500000 0.56500000 0.56500000
C 24.41049214 21.84993288 13.39054921 7632 331 0 0.56500000 0.56500000 0.56500000
C 24.59113313 21.22213408 11.93096825 7633 331 0 0.56500000 0.56500000 0.56500000
C 25.71295668 21.96690888 11.21947952 7634 331 0 0.56500000 0.56500000 0.56500000
C 26.24076592 21.22136166 9.98345056 7635 331 0 0.56500000 0.56500000 0.56500000
H 22.94032085 23.92016998 14.97411019 7636 331 0 1.00000000 1.00000000 1.00000000
H 22.43412107 23.63061919 16.59635413 7637 331 0 1.00000000 1.00000000 1.00000000
H 21.35707297 23.16558249 15.42130525 7638 331 0 1.00000000 1.00000000 1.00000000
H 22.59163230 20.97247561 16.05498862 7639 331 0 1.00000000 1.00000000 1.00000000
H 24.10122604 21.72997483 15.89886991 7640 331 0 1.00000000 1.00000000 1.00000000
H 22.26259562 21.48817432 13.53839134 7641 331 0 1.00000000 1.00000000 1.00000000
H 23.28829113 20.18153105 14.15530822 7642 331 0 1.00000000 1.00000000 1.00000000
H 25.27656832 21.50868368 13.95568738 7643 331 0 1.00000000 1.00000000 1.00000000
H 24.31085689 22.90295908 13.25084138 7644 331 0 1.00000000 1.00000000 1.00000000
H 23.65400370 21.35195017 11.41755228 7645 331 0 1.00000000 1.00000000 1.00000000
H 24.76058121 20.14989596 11.86009043 7646 331 0 1.00000000 1.00000000 1.00000000
H 26.60695307 22.09524044 11.79461312 7647 331 0 1.00000000 1.00000000 1.00000000
H 25.35669064 22.98959674 10.87588701 7648 331 0 1.00000000 1.00000000 1.00000000
H 27.00890839 21.76615679 9.45280308 7649 331 0 1.00000000 1.00000000 1.00000000
H 25.42935726 20.91456953 9.27578806 7650 331 0 1.00000000 1.00000000 1.00000000
H 26.67194699 20.26271667 10.28956677 7651 331 0 1.00000000 1.00000000 1.00000000
C 20.81307037 26.39908767 16.35697426 7652 332 0 0.56500000 0.56500000 0.56500000
C 20.58863086 27.71134007 17.07103544 7653 332 0 0.56500000 0.56500000 0.56500000
C 20.11352499 28.82643727 16.17384387 7654 332 0 0.56500000 0.56500000 0.56500000
C 18.84994908 28.57844710 15.32423337 7655 332 0 0.56500000 0.56500000 0.56500000
C 17.61787058 28.48412570 16.18042717 7656 332 0 0.56500000 0.56500000 0.56500000
C 16.96923262 29.72515114 16.78182557 7657 332 0 0.56500000 0.56500000 0.56500000
C 16.73311928 30.89815665 15.88642035 7658 332 0 0.56500000 0.56500000 0.56500000
H 19.93805599 25.89855851 15.95757567 7659 332 0 1.00000000 1.00000000 1.00000000
H 21.26870233 25.63744320 17.03995364 7660 332 0 1.00000000 1.00000000 1.00000000
H 21.58445666 26.46229733 15.58419137 7661 332 0 1.00000000 1.00000000 1.00000000
H 21.58527715 28.11386062 17.31604712 7662 332 0 1.00000000 1.00000000 1.00000000
H 19.93184580 27.57577969 17.90020724 7663 332 0 1.00000000 1.00000000 1.00000000
H 20.87978827 29.33444827 15.49974064 7664 332 0 1.00000000 1.00000000 1.00000000
H 19.89652427 29.65978472 16.90700550 7665 332 0 1.00000000 1.00000000 1.00000000
H 19.05684236 27.56178400 14.85413226 7666 332 0 1.00000000 1.00000000 1.00000000
H 18.77799476 29.38814234 14.56484430 7667 332 0 1.00000000 1.00000000 1.00000000
H 17.82301340 27.66725008 16.86788013 7668 332 0 1.00000000 1.00000000 1.00000000
H 16.75789852 28.05473974 15.56380327 7669 332 0 1.00000000 1.00000000 1.00000000
H 17.66687894 30.10778650 17.56530148 7670 332 0 1.00000000 1.00000000 1.00000000
H 16.02912897 29.47295952 17.22395041 7671 332 0 1.00000000 1.00000000 1.00000000
H 16.61426186 31.78563542 16.48651113 7672 332 0 1.00000000 1.00000000 1.00000000
H 15.91359238 30.86325608 15.13747905 7673 332 0 1.00000000 1.00000000 1.00000000
H 17.67521167 31.09802801 15.36283273 7674 332 0 1.00000000 1.00000000 1.00000000
C 13.43422140 34.80729791 18.74380013 7675 333 0 0.56500000 0.56500000 0.56500000
C 14.86197717 34.64844625 18.37944983 7676 333 0 0.56500000 0.56500000 0.56500000
C 15.36496441 35.04496068 17.08198064 7677 333 0 0.56500000 0.56500000 0.56500000
C 16.86629236 34.78279836 16.96542725 7678 333 0 0.56500000 0.56500000 0.56500000
C 17.57529204 35.25774027 15.76212769 7679 333 0 0.56500000 0.56500000 0.56500000
C 17.47577514 36.74657885 15.41014594 7680 333 0 0.56500000 0.56500000 0.56500000
C 18.19440881 37.10197030 14.07069988 7681 333 0 0.56500000 0.56500000 0.56500000
H 13.19376988 34.55847956 19.80235180 7682 333 0 1.00000000 1.00000000 1.00000000
H 12.78398027 34.21877783 18.16426173 7683 333 0 1.00000000 1.00000000 1.00000000
H 13.03282638 35.87170795 18.72510440 7684 333 0 1.00000000 1.00000000 1.00000000
H 15.17275212 33.64041340 18.55278346 7685 333 0 1.00000000 1.00000000 1.00000000
H 15.46073881 35.24999256 19.12159011 7686 333 0 1.00000000 1.00000000 1.00000000
H 15.15737704 36.11031824 16.87842564 7687 333 0 1.00000000 1.00000000 1.00000000
H 14.95124191 34.47428664 16.21519797 7688 333 0 1.00000000 1.00000000 1.00000000
H 17.00523467 33.69965724 17.10654650 7689 333 0 1.00000000 1.00000000 1.00000000
H 17.31060927 35.26617093 17.84534726 7690 333 0 1.00000000 1.00000000 1.00000000
H 17.22706830 34.60218142 14.97786708 7691 333 0 1.00000000 1.00000000 1.00000000
H 18.58141523 34.91908771 15.95157291 7692 333 0 1.00000000 1.00000000 1.00000000
H 17.69863118 37.50445761 16.26865774 7693 333 0 1.00000000 1.00000000 1.00000000
H 16.41150755 36.98632399 15.29931785 7694 333 0 1.00000000 1.00000000 1.00000000
H 17.75218374 36.54647650 13.18159879 7695 333 0 1.00000000 1.00000000 1.00000000
H 19.25597171 36.87418494 14.17179477 7696 333 0 1.00000000 1.00000000 1.00000000
H 18.05593530 38.15592326 13.84073619 7697 333 0 1.00000000 1.00000000 1.00000000
C 22.08453299 41.04737352 2.37045018 7698 334 0 0.56500000 0.56500000 0.56500000
C 22.46215288 39.64472614 2.69058520 7699 334 0 0.56500000 0.56500000 0.56500000
C 23.15738225 38.82184395 1.57103462 7700 334 0 0.56500000 0.56500000 0.56500000
C 22.13539440 37.98939394 0.80871667 7701 334 0 0.56500000 0.56500000 0.56500000
C 22.64847012 36.92885017 -0.18353568 7702 334 0 0.56500000 0.56500000 0.56500000
C 21.58546343 36.15049120 -0.89025043 7703 334 0 0.56500000 0.56500000 0.56500000
C 22.09768286 35.15019033 -1.90683316 7704 334 0 0.56500000 0.56500000 0.56500000
H 21.77778565 41.61358263 3.26129475 7705 334 0 1.00000000 1.00000000 1.00000000
H 21.22824709 41.12812614 1.69765910 7706 334 0 1.00000000 1.00000000 1.00000000
H 22.94786500 41.55023061 1.91548494 7707 334 0 1.00000000 1.00000000 1.00000000
H 21.61715821 39.04243819 3.03427393 7708 334 0 1.00000000 1.00000000 1.00000000
H 23.19343691 39.72461743 3.51637865 7709 334 0 1.00000000 1.00000000 1.00000000
H 23.93931454 38.04980099 2.01726933 7710 334 0 1.00000000 1.00000000 1.00000000
H 23.60821100 39.49008754 0.83782686 7711 334 0 1.00000000 1.00000000 1.00000000
H 21.53856945 38.74088340 0.22454963 7712 334 0 1.00000000 1.00000000 1.00000000
H 21.44973290 37.54031595 1.54344242 7713 334 0 1.00000000 1.00000000 1.00000000
H 23.16911703 36.16502093 0.34575064 7714 334 0 1.00000000 1.00000000 1.00000000
H 23.25537833 37.45926980 -0.92156048 7715 334 0 1.00000000 1.00000000 1.00000000
H 20.98656619 36.89299370 -1.40295787 7716 334 0 1.00000000 1.00000000 1.00000000
H 20.92170590 35.67248007 -0.18152877 7717 334 0 1.00000000 1.00000000 1.00000000
H 22.67658035 35.67624390 -2.62102287 7718 334 0 1.00000000 1.00000000 1.00000000
H 21.22072111 34.67549062 -2.31351793 7719 334 0 1.00000000 1.00000000 1.00000000
H 22.76989081 34.41466742 -1.52837369 7720 334 0 1.00000000 1.00000000 1.00000000
C 9.98398951 16.94811760 14.78857530 7721 335 0 0.56500000 0.56500000 0.56500000
C 10.48890184 16.16877577 15.96257176 7722 335 0 0.56500000 0.56500000 0.56500000
C 10.67872283 17.05168486 17.25880426 7723 335 0 0.56500000 0.56500000 0.56500000
C 9.57417914 17.95879896 17.71220014 7724 335 0 0.56500000 0.56500000 0.56500000
C 8.34773300 17.05103131 18.03206098 7725 335 0 0.56500000 0.56500000 0.56500000
C 7.15230921 17.86841643 18.51596407 7726 335 0 0.56500000 0.56500000 0.56500000
C 5.87961328 17.04442879 18.66292508 7727 335 0 0.56500000 0.56500000 0.56500000
H 10.54966254 17.89082983 14.58048742 7728 335 0 1.00000000 1.00000000 1.00000000
H 8.93987270 17.09229810 14.91187883 7729 335 0 1.00000000 1.00000000 1.00000000
H 10.06389473 16.29504245 13.97964684 7730 335 0 1.00000000 1.00000000 1.00000000
H 11.48569440 15.75366777 15.83063923 7731 335 0 1.00000000 1.00000000 1.00000000
H 9.76694116 15.33893823 16.12885777 7732 335 0 1.00000000 1.00000000 1.00000000
H 11.64394288 17.58425907 17.12502499 7733 335 0 1.00000000 1.00000000 1.00000000
H 10.95719604 16.35363531 18.05265539 7734 335 0 1.00000000 1.00000000 1.00000000
H 9.31603877 18.86553695 17.04722455 7735 335 0 1.00000000 1.00000000 1.00000000
H 9.90455460 18.38717883 18.65140003 7736 335 0 1.00000000 1.00000000 1.00000000
H 8.76360565 16.30475106 18.74022723 7737 335 0 1.00000000 1.00000000 1.00000000
H 8.09041228 16.54037448 17.12343066 7738 335 0 1.00000000 1.00000000 1.00000000
H 6.95448536 18.52281848 17.64919702 7739 335 0 1.00000000 1.00000000 1.00000000
H 7.42846937 18.45073113 19.34586475 7740 335 0 1.00000000 1.00000000 1.00000000
H 4.91918807 17.47647353 18.82359553 7741 335 0 1.00000000 1.00000000 1.00000000
H 6.10593705 16.21850686 19.37452685 7742 335 0 1.00000000 1.00000000 1.00000000
H 5.81128748 16.41411155 17.77569464 7743 335 0 1.00000000 1.00000000 1.00000000
C 21.99246810 12.40725505 -1.35627007 7744 336 0 0.56500000 0.56500000 0.56500000
C 21.68432828 13.85928387 -1.84702058 7745 336 0 0.56500000 0.56500000 0.56500000
C 22.83339354 14.88520912 -1.58711791 7746 336 0 0.56500000 0.56500000 0.56500000
C 22.40648046 16.30966997 -1.41285249 7747 336 0 0.56500000 0.56500000 0.56500000
C 21.70794515 16.87681163 -2.57738941 7748 336 0 0.56500000 0.56500000 0.56500000
C 21.19531018 18.29260618 -2.35131332 7749 336 0 0.56500000 0.56500000 0.56500000
C 22.36026740 19.31516171 -2.15178720 7750 336 0 0.56500000 0.56500000 0.56500000
H 22.95577868 12.12869836 -1.70080003 7751 336 0 1.00000000 1.00000000 1.00000000
H 21.26576733 11.75579269 -1.80394515 7752 336 0 1.00000000 1.00000000 1.00000000
H 21.85904134 12.23391010 -0.25541688 7753 336 0 1.00000000 1.00000000 1.00000000
H 20.76582336 14.24812178 -1.37752497 7754 336 0 1.00000000 1.00000000 1.00000000
H 21.45361560 13.71850580 -2.96850742 7755 336 0 1.00000000 1.00000000 1.00000000
H 23.60693132 14.75871140 -2.29594481 7756 336 0 1.00000000 1.00000000 1.00000000
H 23.37360314 14.53730807 -0.63424038 7757 336 0 1.00000000 1.00000000 1.00000000
H 23.25245815 16.97090196 -1.09259034 7758 336 0 1.00000000 1.00000000 1.00000000
H 21.64057381 16.33696168 -0.58761801 7759 336 0 1.00000000 1.00000000 1.00000000
H 20.83729400 16.26881347 -2.82306381 7760 336 0 1.00000000 1.00000000 1.00000000
H 22.23050564 16.75831592 -3.48793475 7761 336 0 1.00000000 1.00000000 1.00000000
H 20.51179253 18.29179964 -1.51570723 7762 336 0 1.00000000 1.00000000 1.00000000
H 20.62177408 18.74245858 -3.16230940 7763 336 0 1.00000000 1.00000000 1.00000000
H 23.14591217 19.21436497 -2.91260233 7764 336 0 1.00000000 1.00000000 1.00000000
H 22.83095372 19.42056843 -1.18223343 7765 336 0 1.00000000 1.00000000 1.00000000
H 21.89317302 20.30679255 -2.20847541 7766 336 0 1.00000000 1.00000000 1.00000000
C 45.50190084 11.46228465 6.50769430 7767 337 0 0.56500000 0.56500000 0.56500000
C 45.34112018 9.99272866 6.99173823 7768 337 0 0.56500000 0.56500000 0.56500000
C 44.95260510 9.02097873 5.89773624 7769 337 0 0.56500000 0.56500000 0.56500000
C 44.85593979 7.63240361 6.53204784 7770 337 0 0.56500000 0.56500000 0.56500000
C 44.57433213 6.39379178 5.62502570 7771 337 0 0.56500000 0.56500000 0.56500000
C 43.20363864 6.29187929 4.85435497 7772 337 0 0.56500000 0.56500000 0.56500000
C 43.14045423 4.92712139 4.31453151 7773 337 0 0.56500000 0.56500000 0.56500000
H 44.51467444 11.69483858 6.16228991 7774 337 0 1.00000000 1.00000000 1.00000000
H 46.27815808 11.71936459 5.76580498 7775 337 0 1.00000000 1.00000000 1.00000000
H 45.70046818 12.10095757 7.34193502 7776 337 0 1.00000000 1.00000000 1.00000000
H 44.50816502 9.85179617 7.71442010 7777 337 0 1.00000000 1.00000000 1.00000000
H 46.21946392 9.57333379 7.48213170 7778 337 0 1.00000000 1.00000000 1.00000000
H 45.65162412 9.04899082 5.09452901 7779 337 0 1.00000000 1.00000000 1.00000000
H 44.00464422 9.27397104 5.50993943 7780 337 0 1.00000000 1.00000000 1.00000000
H 44.19933267 7.56322009 7.40342801 7781 337 0 1.00000000 1.00000000 1.00000000
H 45.90011304 7.44728113 6.90284774 7782 337 0 1.00000000 1.00000000 1.00000000
H 44.46973134 5.62086538 6.38411260 7783 337 0 1.00000000 1.00000000 1.00000000
H 45.45655869 6.21344923 4.96250501 7784 337 0 1.00000000 1.00000000 1.00000000
H 43.13465147 7.02239388 4.06120521 7785 337 0 1.00000000 1.00000000 1.00000000
H 42.43895959 6.48661003 5.55832009 7786 337 0 1.00000000 1.00000000 1.00000000
H 42.33771773 4.69599170 3.63164135 7787 337 0 1.00000000 1.00000000 1.00000000
H 43.22820187 4.14348386 5.06932631 7788 337 0 1.00000000 1.00000000 1.00000000
H 44.06502011 4.81483642 3.69815283 7789 337 0 1.00000000 1.00000000 1.00000000
C 23.63550355 30.89388262 36.03026528 7790 338 0 0.56500000 0.56500000 0.56500000
C 23.49119544 32.38876675 36.01526872 7791 338 0 0.56500000 0.56500000 0.56500000
C 23.83248302 32.95472454 37.39409147 7792 338 0 0.56500000 0.56500000 0.56500000
C 23.75085923 34.44839853 37.45131045 7793 338 0 0.56500000 0.56500000 0.56500000
C 24.67168210 35.25872637 36.44947738 7794 338 0 0.56500000 0.56500000 0.56500000
C 24.20919259 36.70532853 36.44053031 7795 338 0 0.56500000 0.56500000 0.56500000
C 23.04558479 37.02610561 35.46995225 7796 338 0 0.56500000 0.56500000 0.56500000
H 24.66460698 30.62599906 36.33623670 7797 338 0 1.00000000 1.00000000 1.00000000
H 23.43642756 30.50514713 35.03895195 7798 338 0 1.00000000 1.00000000 1.00000000
H 22.92899755 30.43531988 36.73720260 7799 338 0 1.00000000 1.00000000 1.00000000
H 22.51455662 32.76104232 35.81934273 7800 338 0 1.00000000 1.00000000 1.00000000
H 24.16874789 32.75727188 35.25708001 7801 338 0 1.00000000 1.00000000 1.00000000
H 24.91976534 32.69059758 37.57920131 7802 338 0 1.00000000 1.00000000 1.00000000
H 23.28192534 32.40387132 38.17087129 7803 338 0 1.00000000 1.00000000 1.00000000
H 24.00471808 34.67942336 38.50210782 7804 338 0 1.00000000 1.00000000 1.00000000
H 22.71914067 34.67596024 37.33403365 7805 338 0 1.00000000 1.00000000 1.00000000
H 24.65177460 34.87479305 35.40383914 7806 338 0 1.00000000 1.00000000 1.00000000
H 25.63163850 35.23354641 36.93301887 7807 338 0 1.00000000 1.00000000 1.00000000
H 24.99816670 37.40016447 36.37335751 7808 338 0 1.00000000 1.00000000 1.00000000
H 23.88541423 36.84424961 37.45900827 7809 338 0 1.00000000 1.00000000 1.00000000
H 22.21939464 36.41680890 35.34186407 7810 338 0 1.00000000 1.00000000 1.00000000
H 23.41308772 37.17462501 34.48093428 7811 338 0 1.00000000 1.00000000 1.00000000
H 22.64043639 37.98050541 35.84102841 7812 338 0 1.00000000 1.00000000 1.00000000
C 42.25096597 15.53646260 5.18342528 7813 339 0 0.56500000 0.56500000 0.56500000
C 41.27933888 16.64863925 4.89855782 7814 339 0 0.56500000 0.56500000 0.56500000
C 40.41908223 16.84087556 6.10292397 7815 339 0 0.56500000 0.56500000 0.56500000
C 39.48153534 17.99288414 5.92596214 7816 339 0 0.56500000 0.56500000 0.56500000
C 38.47230810 18.13108872 7.07716670 7817 339 0 0.56500000 0.56500000 0.56500000
C 37.38897485 19.19696050 6.89464548 7818 339 0 0.56500000 0.56500000 0.56500000
C 36.13239566 18.99494409 7.77956706 7819 339 0 0.56500000 0.56500000 0.56500000
H 43.04007498 15.45002764 4.42658972 7820 339 0 1.00000000 1.00000000 1.00000000
H 41.71435732 14.57084030 5.31177469 7821 339 0 1.00000000 1.00000000 1.00000000
H 42.81566111 15.89488554 6.09424206 7822 339 0 1.00000000 1.00000000 1.00000000
H 40.65002713 16.40040842 4.05542045 7823 339 0 1.00000000 1.00000000 1.00000000
H 41.79154220 17.60112939 4.75496061 7824 339 0 1.00000000 1.00000000 1.00000000
H 40.89679601 17.06839050 7.09894844 7825 339 0 1.00000000 1.00000000 1.00000000
H 39.77790585 15.98556157 6.31033985 7826 339 0 1.00000000 1.00000000 1.00000000
H 38.93776355 17.85835135 4.95469599 7827 339 0 1.00000000 1.00000000 1.00000000
H 40.01320185 18.97392148 5.96108698 7828 339 0 1.00000000 1.00000000 1.00000000
H 39.01825000 18.23956665 8.01615463 7829 339 0 1.00000000 1.00000000 1.00000000
H 37.97072592 17.14790622 7.24731370 7830 339 0 1.00000000 1.00000000 1.00000000
H 37.19516086 19.23861388 5.81101403 7831 339 0 1.00000000 1.00000000 1.00000000
H 37.79212560 20.19907375 7.07481365 7832 339 0 1.00000000 1.00000000 1.00000000
H 35.59437856 19.91675068 7.74150593 7833 339 0 1.00000000 1.00000000 1.00000000
H 36.39129667 18.77230443 8.81070376 7834 339 0 1.00000000 1.00000000 1.00000000
H 35.37424611 18.26348783 7.28399119 7835 339 0 1.00000000 1.00000000 1.00000000
C 15.71559183 13.00168428 41.52331727 7836 340 0 0.56500000 0.56500000 0.56500000
C 16.21845043 13.37391033 40.12458103 7837 340 0 0.56500000 0.56500000 0.56500000
C 16.10053443 14.80434362 39.71423409 7838 340 0 0.56500000 0.56500000 0.56500000
C 16.40195422 15.12530039 38.28924417 7839 340 0 0.56500000 0.56500000 0.56500000
C 16.07789729 16.58444887 37.89920855 7840 340 0 0.56500000 0.56500000 0.56500000
C 16.19884800 16.85533314 36.43026732 7841 340 0 0.56500000 0.56500000 0.56500000
C 14.93036294 16.54280833 35.68685086 7842 340 0 0.56500000 0.56500000 0.56500000
H 15.37434660 11.92407278 41.61664868 7843 340 0 1.00000000 1.00000000 1.00000000
H 14.81862733 13.65401891 41.77248316 7844 340 0 1.00000000 1.00000000 1.00000000
H 16.54648823 13.30614103 42.21448327 7845 340 0 1.00000000 1.00000000 1.00000000
H 15.70425083 12.77961991 39.33460180 7846 340 0 1.00000000 1.00000000 1.00000000
H 17.27731177 13.15177716 40.00381890 7847 340 0 1.00000000 1.00000000 1.00000000
H 16.77444297 15.30218786 40.36303174 7848 340 0 1.00000000 1.00000000 1.00000000
H 15.06999967 15.04676835 40.02608807 7849 340 0 1.00000000 1.00000000 1.00000000
H 15.68855304 14.49776127 37.79065928 7850 340 0 1.00000000 1.00000000 1.00000000
H 17.34678882 14.85692657 37.82792703 7851 340 0 1.00000000 1.00000000 1.00000000
H 16.78311027 17.20020410 38.45345154 7852 340 0 1.00000000 1.00000000 1.00000000
H 15.10711797 16.97894980 38.28636404 7853 340 0 1.00000000 1.00000000 1.00000000
H 17.03594404 16.33979753 35.99881980 7854 340 0 1.00000000 1.00000000 1.00000000
H 16.35405087 17.89751527 36.36019522 7855 340 0 1.00000000 1.00000000 1.00000000
H 14.02272176 16.63722955 36.34225601 7856 340 0 1.00000000 1.00000000 1.00000000
H 15.02465654 15.52743647 35.26273787 7857 340 0 1.00000000 1.00000000 1.00000000
H 14.73673588 17.18740056 34.81765585 7858 340 0 1.00000000 1.00000000 1.00000000
C 23.15730725 24.69812013 28.94815798 7859 341 0 0.56500000 0.56500000 0.56500000
C 22.98333972 25.80313930 30.00752163 7860 341 0 0.56500000 0.56500000 0.56500000
C 21.90580216 25.49623498 31.08568871 7861 341 0 0.56500000 0.56500000 0.56500000
C 21.89694316 26.46424185 32.33784013 7862 341 0 0.56500000 0.56500000 0.56500000
C 21.18970704 27.72341121 32.05256695 7863 341 0 0.56500000 0.56500000 0.56500000
C 21.16157409 28.81450580 33.25408622 7864 341 0 0.56500000 0.56500000 0.56500000
C 20.93797477 28.35401303 34.66757435 7865 341 0 0.56500000 0.56500000 0.56500000
H 22.22640073 24.47024115 28.42452907 7866 341 0 1.00000000 1.00000000 1.00000000
H 23.49569742 23.74791373 29.22451899 7867 341 0 1.00000000 1.00000000 1.00000000
H 23.89499107 24.98441491 28.15460998 7868 341 0 1.00000000 1.00000000 1.00000000
H 22.65151788 26.76091529 29.62403656 7869 341 0 1.00000000 1.00000000 1.00000000
H 23.87494405 25.95750355 30.50780583 7870 341 0 1.00000000 1.00000000 1.00000000
H 22.17486439 24.51786627 31.51445116 7871 341 0 1.00000000 1.00000000 1.00000000
H 20.89940809 25.41704514 30.67501308 7872 341 0 1.00000000 1.00000000 1.00000000
H 22.88688895 26.68211542 32.75575699 7873 341 0 1.00000000 1.00000000 1.00000000
H 21.40024136 25.84489377 33.11831131 7874 341 0 1.00000000 1.00000000 1.00000000
H 20.18242785 27.48944631 31.70932602 7875 341 0 1.00000000 1.00000000 1.00000000
H 21.62754959 28.22230246 31.13122378 7876 341 0 1.00000000 1.00000000 1.00000000
H 20.45731509 29.57461116 32.94923322 7877 341 0 1.00000000 1.00000000 1.00000000
H 22.10928340 29.32833251 33.24928107 7878 341 0 1.00000000 1.00000000 1.00000000
H 21.67435822 27.59395148 34.91083676 7879 341 0 1.00000000 1.00000000 1.00000000
H 19.98231350 27.89435826 34.79049111 7880 341 0 1.00000000 1.00000000 1.00000000
H 21.19038333 29.14723653 35.37028075 7881 341 0 1.00000000 1.00000000 1.00000000
C 33.05149509 30.42086878 7.36101784 7882 342 0 0.56500000 0.56500000 0.56500000
C 33.16769033 28.86191062 7.42013338 7883 342 0 0.56500000 0.56500000 0.56500000
C 32.04109338 28.15857105 8.06027128 7884 342 0 0.56500000 0.56500000 0.56500000
C 30.63164074 28.12558809 7.37952491 7885 342 0 0.56500000 0.56500000 0.56500000
C 30.68690995 27.61704388 5.94276728 7886 342 0 0.56500000 0.56500000 0.56500000
C 31.52084290 26.33334239 5.68087674 7887 342 0 0.56500000 0.56500000 0.56500000
C 31.48888855 26.01921365 4.17899817 7888 342 0 0.56500000 0.56500000 0.56500000
H 32.05849355 30.63054565 6.96527616 7889 342 0 1.00000000 1.00000000 1.00000000
H 33.80279029 30.74844384 6.63606959 7890 342 0 1.00000000 1.00000000 1.00000000
H 33.24991518 30.99235039 8.25608653 7891 342 0 1.00000000 1.00000000 1.00000000
H 34.05461933 28.65441498 7.99658574 7892 342 0 1.00000000 1.00000000 1.00000000
H 33.29433401 28.49599800 6.32108709 7893 342 0 1.00000000 1.00000000 1.00000000
H 31.90310430 28.57997577 9.04597197 7894 342 0 1.00000000 1.00000000 1.00000000
H 32.35779614 27.08955445 8.17103838 7895 342 0 1.00000000 1.00000000 1.00000000
H 30.21087344 29.16273316 7.37137278 7896 342 0 1.00000000 1.00000000 1.00000000
H 29.89642952 27.52454218 7.88494963 7897 342 0 1.00000000 1.00000000 1.00000000
H 31.10605864 28.36284649 5.30103069 7898 342 0 1.00000000 1.00000000 1.00000000
H 29.67578795 27.42550787 5.55272279 7899 342 0 1.00000000 1.00000000 1.00000000
H 31.03876229 25.50694895 6.19646625 7900 342 0 1.00000000 1.00000000 1.00000000
H 32.55037323 26.37652553 5.94942644 7901 342 0 1.00000000 1.00000000 1.00000000
H 32.31341096 25.36803875 3.92307339 7902 342 0 1.00000000 1.00000000 1.00000000
H 31.40610192 26.94521764 3.59654118 7903 342 0 1.00000000 1.00000000 1.00000000
H 30.63124149 25.39604393 3.99552620 7904 342 0 1.00000000 1.00000000 1.00000000
C 9.43056981 3.91560632 17.30337257 7905 343 0 0.56500000 0.56500000 0.56500000
C 8.60694703 4.53017458 18.48033857 7906 343 0 0.56500000 0.56500000 0.56500000
C 9.53619356 5.02984839 19.56938463 7907 343 0 0.56500000 0.56500000 0.56500000
C 10.44923615 6.19954032 19.12070973 7908 343 0 0.56500000 0.56500000 0.56500000
C 9.81830248 7.31126486 18.22652902 7909 343 0 0.56500000 0.56500000 0.56500000
C 10.71412978 8.50058203 17.98867707 7910 343 0 0.56500000 0.56500000 0.56500000
C 11.05699165 9.30660171 19.19406569 7911 343 0 0.56500000 0.56500000 0.56500000
H 8.89346267 3.11898797 16.85746426 7912 343 0 1.00000000 1.00000000 1.00000000
H 10.35063857 3.42066759 17.66989693 7913 343 0 1.00000000 1.00000000 1.00000000
H 9.65611901 4.56796993 16.48097010 7914 343 0 1.00000000 1.00000000 1.00000000
H 7.97949711 3.64405878 18.82888440 7915 343 0 1.00000000 1.00000000 1.00000000
H 7.95318185 5.25681504 18.03674364 7916 343 0 1.00000000 1.00000000 1.00000000
H 10.09583616 4.29292871 20.14676948 7917 343 0 1.00000000 1.00000000 1.00000000
H 8.97163821 5.45866060 20.38770896 7918 343 0 1.00000000 1.00000000 1.00000000
H 11.30946581 5.86828412 18.49236405 7919 343 0 1.00000000 1.00000000 1.00000000
H 10.98591304 6.70517895 19.99409599 7920 343 0 1.00000000 1.00000000 1.00000000
H 8.88007382 7.66184501 18.70161745 7921 343 0 1.00000000 1.00000000 1.00000000
H 9.55892558 6.79576257 17.26219508 7922 343 0 1.00000000 1.00000000 1.00000000
H 10.26963398 9.14043550 17.16029830 7923 343 0 1.00000000 1.00000000 1.00000000
H 11.65673625 7.97646297 17.58462001 7924 343 0 1.00000000 1.00000000 1.00000000
H 11.61305743 10.17043004 18.99455010 7925 343 0 1.00000000 1.00000000 1.00000000
H 11.52827120 8.75803353 20.02034132 7926 343 0 1.00000000 1.00000000 1.00000000
H 10.13392171 9.57248946 19.79982686 7927 343 0 1.00000000 1.00000000 1.00000000
C 36.95629527 46.36535703 27.05376618 7928 344 0 0.56500000 0.56500000 0.56500000
C 35.53822123 46.87318372 26.78471649 7929 344 0 0.56500000 0.56500000 0.56500000
C 35.58866370 48.39935172 26.94768863 7930 344 0 0.56500000 0.56500000 0.56500000
C 34.78569197 49.19004173 25.94683088 7931 344 0 0.56500000 0.56500000 0.56500000
C 33.33256325 49.16448362 26.09798347 7932 344 0 0.56500000 0.56500000 0.56500000
C 32.47009752 49.80408413 24.98803772 7933 344 0 0.56500000 0.56500000 0.56500000
C 31.02010287 50.06241165 25.30904447 7934 344 0 0.56500000 0.56500000 0.56500000
H 37.08887045 45.27492479 27.31114380 7935 344 0 1.00000000 1.00000000 1.00000000
H 37.42082988 46.84534510 27.89746573 7936 344 0 1.00000000 1.00000000 1.00000000
H 37.62344591 46.54597838 26.22737515 7937 344 0 1.00000000 1.00000000 1.00000000
H 34.68052512 46.44358784 27.39403233 7938 344 0 1.00000000 1.00000000 1.00000000
H 35.27251938 46.66056908 25.74779288 7939 344 0 1.00000000 1.00000000 1.00000000
H 36.64330966 48.72036363 26.72581014 7940 344 0 1.00000000 1.00000000 1.00000000
H 35.30983393 48.70465805 27.94520994 7941 344 0 1.00000000 1.00000000 1.00000000
H 35.07845752 48.78656246 24.97504371 7942 344 0 1.00000000 1.00000000 1.00000000
H 35.07822144 50.26469625 26.00568520 7943 344 0 1.00000000 1.00000000 1.00000000
H 33.00906292 49.81458358 26.95405250 7944 344 0 1.00000000 1.00000000 1.00000000
H 33.04081118 48.11879770 26.34517452 7945 344 0 1.00000000 1.00000000 1.00000000
H 32.66878189 49.26787071 24.11451468 7946 344 0 1.00000000 1.00000000 1.00000000
H 32.99312251 50.75939087 24.83050288 7947 344 0 1.00000000 1.00000000 1.00000000
H 30.87382667 50.72494001 26.11122857 7948 344 0 1.00000000 1.00000000 1.00000000
H 30.53216621 49.08544146 25.55342231 7949 344 0 1.00000000 1.00000000 1.00000000
H 30.43723493 50.43629829 24.41154098 7950 344 0 1.00000000 1.00000000 1.00000000
C 39.04711391 45.23750282 -5.83351759 7951 345 0 0.56500000 0.56500000 0.56500000
C 40.13778055 45.88873590 -4.96277097 7952 345 0 0.56500000 0.56500000 0.56500000
C 39.41038623 46.73363560 -3.88826783 7953 345 0 0.56500000 0.56500000 0.56500000
C 40.10313008 47.21785853 -2.58434567 7954 345 0 0.56500000 0.56500000 0.56500000
C 39.06529808 47.66055324 -1.57852747 7955 345 0 0.56500000 0.56500000 0.56500000
C 38.75979315 46.58392763 -0.49019946 7956 345 0 0.56500000 0.56500000 0.56500000
C 37.76209665 47.13759619 0.48563745 7957 345 0 0.56500000 0.56500000 0.56500000
H 39.40258371 44.30968395 -6.38252239 7958 345 0 1.00000000 1.00000000 1.00000000
H 38.72513151 45.97659170 -6.58057508 7959 345 0 1.00000000 1.00000000 1.00000000
H 38.26296415 44.95958856 -5.16314344 7960 345 0 1.00000000 1.00000000 1.00000000
H 40.80298734 46.50326929 -5.61783903 7961 345 0 1.00000000 1.00000000 1.00000000
H 40.86579407 45.12636471 -4.57521009 7962 345 0 1.00000000 1.00000000 1.00000000
H 38.56566293 46.12197851 -3.60376643 7963 345 0 1.00000000 1.00000000 1.00000000
H 39.01427666 47.59799736 -4.35434448 7964 345 0 1.00000000 1.00000000 1.00000000
H 40.76852621 48.07453671 -2.80354568 7965 345 0 1.00000000 1.00000000 1.00000000
H 40.77319366 46.51221999 -2.08288126 7966 345 0 1.00000000 1.00000000 1.00000000
H 38.13216481 47.89086011 -2.02674313 7967 345 0 1.00000000 1.00000000 1.00000000
H 39.35636685 48.59575912 -1.09732055 7968 345 0 1.00000000 1.00000000 1.00000000
H 39.71570949 46.34361707 0.02203497 7969 345 0 1.00000000 1.00000000 1.00000000
H 38.49820094 45.62967376 -1.02428675 7970 345 0 1.00000000 1.00000000 1.00000000
H 38.26179243 47.94753137 1.01861735 7971 345 0 1.00000000 1.00000000 1.00000000
H 37.38196615 46.37608239 1.23744251 7972 345 0 1.00000000 1.00000000 1.00000000
H 36.85290294 47.60775502 -0.00729236 7973 345 0 1.00000000 1.00000000 1.00000000
C 24.34935031 12.53058754 33.12655539 7974 346 0 0.56500000 0.56500000 0.56500000
C 25.48268986 12.59671779 32.12496233 7975 346 0 0.56500000 0.56500000 0.56500000
C 25.21030561 11.77957241 30.83973276 7976 346 0 0.56500000 0.56500000 0.56500000
C 26.04716742 12.06311921 29.60519996 7977 346 0 0.56500000 0.56500000 0.56500000
C 27.50913826 11.64044062 29.86935887 7978 346 0 0.56500000 0.56500000 0.56500000
C 28.50999149 11.99367851 28.80277775 7979 346 0 0.56500000 0.56500000 0.56500000
C 29.80035306 11.24304234 28.97412877 7980 346 0 0.56500000 0.56500000 0.56500000
H 24.14356065 11.51629677 33.58890211 7981 346 0 1.00000000 1.00000000 1.00000000
H 23.47585627 12.87773030 32.65521671 7982 346 0 1.00000000 1.00000000 1.00000000
H 24.57093300 13.17260177 34.00097777 7983 346 0 1.00000000 1.00000000 1.00000000
H 26.38821983 12.24652504 32.57886047 7984 346 0 1.00000000 1.00000000 1.00000000
H 25.65695187 13.63742449 31.82824916 7985 346 0 1.00000000 1.00000000 1.00000000
H 24.12558156 11.84638512 30.71784235 7986 346 0 1.00000000 1.00000000 1.00000000
H 25.34428839 10.69385674 31.00458551 7987 346 0 1.00000000 1.00000000 1.00000000
H 25.98710419 13.10944686 29.30943372 7988 346 0 1.00000000 1.00000000 1.00000000
H 25.63580607 11.52412503 28.78265748 7989 346 0 1.00000000 1.00000000 1.00000000
H 27.50660835 10.56064744 29.93355458 7990 346 0 1.00000000 1.00000000 1.00000000
H 27.68901053 12.02789113 30.93453578 7991 346 0 1.00000000 1.00000000 1.00000000
H 28.83786722 13.05725293 28.77650203 7992 346 0 1.00000000 1.00000000 1.00000000
H 28.13105795 11.76938098 27.80449752 7993 346 0 1.00000000 1.00000000 1.00000000
H 29.74015571 10.19097717 28.85249969 7994 346 0 1.00000000 1.00000000 1.00000000
H 30.23108191 11.32783415 29.99304500 7995 346 0 1.00000000 1.00000000 1.00000000
H 30.61221046 11.52873809 28.36928243 7996 346 0 1.00000000 1.00000000 1.00000000
C 27.91040608 24.98750760 5.14412707 7997 347 0 0.56500000 0.56500000 0.56500000
C 26.64120591 25.03298042 5.99145716 7998 347 0 0.56500000 0.56500000 0.56500000
C 26.41304080 26.44785029 6.48122500 7999 347 0 0.56500000 0.56500000 0.56500000
C 25.16131232 26.56854979 7.26258782 8000 347 0 0.56500000 0.56500000 0.56500000
C 23.82526315 26.46775602 6.52618864 8001 347 0 0.56500000 0.56500000 0.56500000
C 22.68099383 26.63116381 7.49691177 8002 347 0 0.56500000 0.56500000 0.56500000
C 22.38165237 25.25635053 8.10187094 8003 347 0 0.56500000 0.56500000 0.56500000
H 28.29336786 24.03322313 4.75850875 8004 347 0 1.00000000 1.00000000 1.00000000
H 28.82332000 25.45585361 5.55136928 8005 347 0 1.00000000 1.00000000 1.00000000
H 27.67512452 25.59010726 4.26776757 8006 347 0 1.00000000 1.00000000 1.00000000
H 26.69390684 24.33543968 6.85910063 8007 347 0 1.00000000 1.00000000 1.00000000
H 25.79587236 24.68217942 5.40487020 8008 347 0 1.00000000 1.00000000 1.00000000
H 26.44030863 27.01772979 5.54425116 8009 347 0 1.00000000 1.00000000 1.00000000
H 27.22357684 26.80976468 7.12585868 8010 347 0 1.00000000 1.00000000 1.00000000
H 25.08342432 27.52829266 7.81443968 8011 347 0 1.00000000 1.00000000 1.00000000
H 25.29185149 25.90112131 8.23772908 8012 347 0 1.00000000 1.00000000 1.00000000
H 23.87127451 25.50306038 6.01621038 8013 347 0 1.00000000 1.00000000 1.00000000
H 23.86151644 27.22520419 5.75121024 8014 347 0 1.00000000 1.00000000 1.00000000
H 21.83418691 27.04988802 6.93622119 8015 347 0 1.00000000 1.00000000 1.00000000
H 22.91318030 27.31335336 8.37029692 8016 347 0 1.00000000 1.00000000 1.00000000
H 23.29294025 24.90176396 8.73599027 8017 347 0 1.00000000 1.00000000 1.00000000
H 22.17544644 24.65237052 7.25527492 8018 347 0 1.00000000 1.00000000 1.00000000
H 21.50975918 25.16714348 8.86584321 8019 347 0 1.00000000 1.00000000 1.00000000
C 14.90995253 46.73557555 -5.20943421 8020 348 0 0.56500000 0.56500000 0.56500000
C 15.42241753 45.43714914 -4.57439710 8021 348 0 0.56500000 0.56500000 0.56500000
C 15.27007087 45.49622627 -3.01210374 8022 348 0 0.56500000 0.56500000 0.56500000
C 13.77351723 45.63341308 -2.50058645 8023 348 0 0.56500000 0.56500000 0.56500000
C 13.62636190 44.87518068 -1.18649206 8024 348 0 0.56500000 0.56500000 0.56500000
C 12.21287754 44.60729347 -0.72310098 8025 348 0 0.56500000 0.56500000 0.56500000
C 12.19529411 43.46283348 0.22351020 8026 348 0 0.56500000 0.56500000 0.56500000
H 15.48892183 47.55378738 -4.90279432 8027 348 0 1.00000000 1.00000000 1.00000000
H 13.79332466 46.98115426 -5.00155287 8028 348 0 1.00000000 1.00000000 1.00000000
H 15.03005330 46.67986705 -6.26714905 8029 348 0 1.00000000 1.00000000 1.00000000
H 16.47546628 45.28474813 -4.82993690 8030 348 0 1.00000000 1.00000000 1.00000000
H 14.86390661 44.57949046 -4.95105137 8031 348 0 1.00000000 1.00000000 1.00000000
H 15.91694042 46.29705731 -2.61904801 8032 348 0 1.00000000 1.00000000 1.00000000
H 15.61771746 44.55866864 -2.54741414 8033 348 0 1.00000000 1.00000000 1.00000000
H 13.10612370 45.20129261 -3.24640836 8034 348 0 1.00000000 1.00000000 1.00000000
H 13.45297241 46.63733138 -2.53889577 8035 348 0 1.00000000 1.00000000 1.00000000
H 14.19966042 45.38221244 -0.37723939 8036 348 0 1.00000000 1.00000000 1.00000000
H 14.05370786 43.88060524 -1.21312268 8037 348 0 1.00000000 1.00000000 1.00000000
H 11.62737527 44.32132839 -1.58490076 8038 348 0 1.00000000 1.00000000 1.00000000
H 11.70959458 45.52048127 -0.39219462 8039 348 0 1.00000000 1.00000000 1.00000000
H 13.18369175 43.14192603 0.28833874 8040 348 0 1.00000000 1.00000000 1.00000000
H 11.59173266 42.64026469 -0.23431043 8041 348 0 1.00000000 1.00000000 1.00000000
H 11.86161334 43.68831223 1.22919668 8042 348 0 1.00000000 1.00000000 1.00000000
C 44.64902700 39.45865290 16.06948205 8043 349 0 0.56500000 0.56500000 0.56500000
C 43.54665807 40.53935475 16.32385405 8044 349 0 0.56500000 0.56500000 0.56500000
C 43.16838336 40.67939799 17.84196103 8045 349 0 0.56500000 0.56500000 0.56500000
C 44.34378318 41.09442386 18.78028374 8046 349 0 0.56500000 0.56500000 0.56500000
C 43.86644359 41.65928348 20.09048942 8047 349 0 0.56500000 0.56500000 0.56500000
C 45.02054009 41.68894848 21.05262646 8048 349 0 0.56500000 0.56500000 0.56500000
C 44.65318024 42.09454140 22.43036095 8049 349 0 0.56500000 0.56500000 0.56500000
H 45.02757769 39.48332311 14.97845487 8050 349 0 1.00000000 1.00000000 1.00000000
H 44.35975325 38.43708206 16.28078413 8051 349 0 1.00000000 1.00000000 1.00000000
H 45.59953427 39.62921592 16.75523781 8052 349 0 1.00000000 1.00000000 1.00000000
H 42.62174215 40.40220534 15.73420588 8053 349 0 1.00000000 1.00000000 1.00000000
H 43.78005696 41.62552079 16.10204503 8054 349 0 1.00000000 1.00000000 1.00000000
H 42.83471216 39.72567235 18.20058811 8055 349 0 1.00000000 1.00000000 1.00000000
H 42.35886103 41.46065168 17.87885783 8056 349 0 1.00000000 1.00000000 1.00000000
H 44.95328800 41.84345726 18.25088486 8057 349 0 1.00000000 1.00000000 1.00000000
H 44.88614472 40.19918919 19.04804027 8058 349 0 1.00000000 1.00000000 1.00000000
H 42.94640925 41.09050482 20.41640953 8059 349 0 1.00000000 1.00000000 1.00000000
H 43.55955860 42.65514725 20.10701405 8060 349 0 1.00000000 1.00000000 1.00000000
H 45.83575558 42.42932656 20.78491159 8061 349 0 1.00000000 1.00000000 1.00000000
H 45.41678909 40.75412109 21.03146596 8062 349 0 1.00000000 1.00000000 1.00000000
H 44.18558804 43.07224374 22.33326434 8063 349 0 1.00000000 1.00000000 1.00000000
H 45.49285293 42.27269549 23.13870757 8064 349 0 1.00000000 1.00000000 1.00000000
H 43.88921771 41.48433214 22.90416195 8065 349 0 1.00000000 1.00000000 1.00000000
C 35.83114244 40.38974269 5.55292277 8066 350 0 0.56500000 0.56500000 0.56500000
C 36.13187673 41.81894320 5.13189493 8067 350 0 0.56500000 0.56500000 0.56500000
C 36.73488916 41.86521516 3.72089735 8068 350 0 0.56500000 0.56500000 0.56500000
C 37.35089628 43.16343350 3.41192851 8069 350 0 0.56500000 0.56500000 0.56500000
C 37.76080392 43.23310064 1.97647036 8070 350 0 0.56500000 0.56500000 0.56500000
C 38.77241398 42.15443938 1.49626997 8071 350 0 0.56500000 0.56500000 0.56500000
C 40.09668183 42.04552483 2.23109636 8072 350 0 0.56500000 0.56500000 0.56500000
H 35.44205323 40.34082226 6.61257707 8073 350 0 1.00000000 1.00000000 1.00000000
H 36.77040945 39.89227108 5.67509546 8074 350 0 1.00000000 1.00000000 1.00000000
H 35.22512920 39.72668678 4.88858136 8075 350 0 1.00000000 1.00000000 1.00000000
H 36.85849367 42.25705113 5.86600341 8076 350 0 1.00000000 1.00000000 1.00000000
H 35.16218035 42.44300957 5.04099341 8077 350 0 1.00000000 1.00000000 1.00000000
H 35.92603421 41.69874742 3.00073124 8078 350 0 1.00000000 1.00000000 1.00000000
H 37.53772564 41.09143383 3.58593341 8079 350 0 1.00000000 1.00000000 1.00000000
H 38.36555538 43.33249515 3.91432797 8080 350 0 1.00000000 1.00000000 1.00000000
H 36.65687378 43.92065579 3.81790360 8081 350 0 1.00000000 1.00000000 1.00000000
H 38.23627992 44.16715244 1.75501340 8082 350 0 1.00000000 1.00000000 1.00000000
H 36.88029496 43.09600052 1.35512491 8083 350 0 1.00000000 1.00000000 1.00000000
H 39.06148138 42.34211971 0.44080328 8084 350 0 1.00000000 1.00000000 1.00000000
H 38.30937261 41.18286731 1.41442641 8085 350 0 1.00000000 1.00000000 1.00000000
H 40.74412519 42.94004340 2.47844709 8086 350 0 1.00000000 1.00000000 1.00000000
H 40.70563120 41.42196817 1.55500946 8087 350 0 1.00000000 1.00000000 1.00000000
H 40.03481240 41.36469091 3.11726346 8088 350 0 1.00000000 1.00000000 1.00000000
C 6.22164344 3.51235753 15.53740018 8089 351 0 0.56500000 0.56500000 0.56500000
C 5.14486117 3.12928610 14.44519434 8090 351 0 0.56500000 0.56500000 0.56500000
C 5.70106352 2.21289857 13.37419245 8091 351 0 0.56500000 0.56500000 0.56500000
C 4.84878095 2.11021066 12.08217091 8092 351 0 0.56500000 0.56500000 0.56500000
C 4.68821188 3.46070822 11.33403701 8093 351 0 0.56500000 0.56500000 0.56500000
C 3.30552182 3.50626887 10.51415807 8094 351 0 0.56500000 0.56500000 0.56500000
C 2.97874280 4.97844308 10.01303771 8095 351 0 0.56500000 0.56500000 0.56500000
H 5.86584460 4.30996792 16.15910830 8096 351 0 1.00000000 1.00000000 1.00000000
H 7.12813423 3.69643819 14.98794649 8097 351 0 1.00000000 1.00000000 1.00000000
H 6.41242965 2.61353933 16.12583445 8098 351 0 1.00000000 1.00000000 1.00000000
H 4.66515832 4.01566575 13.99890552 8099 351 0 1.00000000 1.00000000 1.00000000
H 4.32441303 2.59589513 14.94855424 8100 351 0 1.00000000 1.00000000 1.00000000
H 5.86405891 1.25577522 13.85900125 8101 351 0 1.00000000 1.00000000 1.00000000
H 6.73156724 2.57467458 13.05925423 8102 351 0 1.00000000 1.00000000 1.00000000
H 3.82910905 1.69570342 12.26391502 8103 351 0 1.00000000 1.00000000 1.00000000
H 5.44894233 1.33681273 11.47034541 8104 351 0 1.00000000 1.00000000 1.00000000
H 5.56846176 3.78876673 10.69022323 8105 351 0 1.00000000 1.00000000 1.00000000
H 4.52289168 4.26753233 12.04518299 8106 351 0 1.00000000 1.00000000 1.00000000
H 2.55592957 3.19781097 11.23728293 8107 351 0 1.00000000 1.00000000 1.00000000
H 3.31168531 2.81209431 9.66625647 8108 351 0 1.00000000 1.00000000 1.00000000
H 2.75884988 5.55850710 10.90875638 8109 351 0 1.00000000 1.00000000 1.00000000
H 2.08747669 4.94281260 9.43643642 8110 351 0 1.00000000 1.00000000 1.00000000
H 3.76101968 5.48315007 9.43488016 8111 351 0 1.00000000 1.00000000 1.00000000
C 14.23644250 7.69694251 18.34668845 8112 352 0 0.56500000 0.56500000 0.56500000
C 14.55748111 6.36788666 19.08034807 8113 352 0 0.56500000 0.56500000 0.56500000
C 15.97344009 5.86844262 19.09480634 8114 352 0 0.56500000 0.56500000 0.56500000
C 16.24468286 4.49800228 19.83163046 8115 352 0 0.56500000 0.56500000 0.56500000
C 17.65052321 3.95513319 19.50714636 8116 352 0 0.56500000 0.56500000 0.56500000
C 17.75994267 2.69378537 20.39819740 8117 352 0 0.56500000 0.56500000 0.56500000
C 19.13431728 2.05672320 20.37314667 8118 352 0 0.56500000 0.56500000 0.56500000
H 15.05351762 8.42197114 18.54556401 8119 352 0 1.00000000 1.00000000 1.00000000
H 13.32505437 8.12811201 18.72380908 8120 352 0 1.00000000 1.00000000 1.00000000
H 14.18209593 7.53783985 17.20921517 8121 352 0 1.00000000 1.00000000 1.00000000
H 13.85097264 5.59787802 18.73747586 8122 352 0 1.00000000 1.00000000 1.00000000
H 14.24328766 6.43280063 20.09691523 8123 352 0 1.00000000 1.00000000 1.00000000
H 16.59701823 6.57115755 19.65916319 8124 352 0 1.00000000 1.00000000 1.00000000
H 16.35802328 5.73220379 18.08516426 8125 352 0 1.00000000 1.00000000 1.00000000
H 15.57105730 3.67727770 19.57734292 8126 352 0 1.00000000 1.00000000 1.00000000
H 16.09639499 4.57811153 20.91647787 8127 352 0 1.00000000 1.00000000 1.00000000
H 18.42508088 4.73596925 19.75036507 8128 352 0 1.00000000 1.00000000 1.00000000
H 17.74538426 3.76511527 18.39999744 8129 352 0 1.00000000 1.00000000 1.00000000
H 16.88505567 2.03323850 20.08762874 8130 352 0 1.00000000 1.00000000 1.00000000
H 17.47569890 3.12411998 21.33125105 8131 352 0 1.00000000 1.00000000 1.00000000
H 19.21408326 1.28835320 21.13442869 8132 352 0 1.00000000 1.00000000 1.00000000
H 19.88799148 2.75713152 20.61719788 8133 352 0 1.00000000 1.00000000 1.00000000
H 19.43904248 1.57635087 19.41958123 8134 352 0 1.00000000 1.00000000 1.00000000
C 29.13157720 12.61734759 -0.75380280 8135 353 0 0.56500000 0.56500000 0.56500000
C 28.57179917 11.27564470 -1.29720663 8136 353 0 0.56500000 0.56500000 0.56500000
C 27.03279390 11.12707661 -1.11197693 8137 353 0 0.56500000 0.56500000 0.56500000
C 26.10092803 11.97765817 -1.98859946 8138 353 0 0.56500000 0.56500000 0.56500000
C 26.19221130 11.61547553 -3.51521722 8139 353 0 0.56500000 0.56500000 0.56500000
C 25.79281804 10.17929470 -3.85430785 8140 353 0 0.56500000 0.56500000 0.56500000
C 24.37698485 9.82632907 -3.51520479 8141 353 0 0.56500000 0.56500000 0.56500000
H 28.37288651 13.38792995 -1.00097875 8142 353 0 1.00000000 1.00000000 1.00000000
H 30.06122006 12.97710101 -1.27478729 8143 353 0 1.00000000 1.00000000 1.00000000
H 29.28914795 12.57841326 0.40084694 8144 353 0 1.00000000 1.00000000 1.00000000
H 28.95449773 10.44159402 -0.70427861 8145 353 0 1.00000000 1.00000000 1.00000000
H 28.83196716 11.07871661 -2.31395613 8146 353 0 1.00000000 1.00000000 1.00000000
H 26.72939329 11.36476008 -0.07890657 8147 353 0 1.00000000 1.00000000 1.00000000
H 26.78030237 10.05869861 -1.16806353 8148 353 0 1.00000000 1.00000000 1.00000000
H 26.29789258 12.99548688 -1.70195064 8149 353 0 1.00000000 1.00000000 1.00000000
H 25.07619584 11.84952499 -1.66943438 8150 353 0 1.00000000 1.00000000 1.00000000
H 27.22591211 11.70588368 -3.80571128 8151 353 0 1.00000000 1.00000000 1.00000000
H 25.52660487 12.27906089 -4.07375523 8152 353 0 1.00000000 1.00000000 1.00000000
H 26.44135346 9.55870437 -3.22881473 8153 353 0 1.00000000 1.00000000 1.00000000
H 25.95784652 10.09071415 -4.95661479 8154 353 0 1.00000000 1.00000000 1.00000000
H 24.24736796 9.72259847 -2.47824440 8155 353 0 1.00000000 1.00000000 1.00000000
H 24.00120825 9.02512261 -4.03389846 8156 353 0 1.00000000 1.00000000 1.00000000
H 23.72951606 10.65026308 -3.57955945 8157 353 0 1.00000000 1.00000000 1.00000000
C 31.85190090 23.38441637 35.78876237 8158 354 0 0.56500000 0.56500000 0.56500000
C 30.67694451 23.01285494 34.79171184 8159 354 0 0.56500000 0.56500000 0.56500000
C 30.71301838 23.59023984 33.44221523 8160 354 0 0.56500000 0.56500000 0.56500000
C 29.70956614 23.18024273 32.37062382 8161 354 0 0.56500000 0.56500000 0.56500000
C 29.75490214 24.21248648 31.18688293 8162 354 0 0.56500000 0.56500000 0.56500000
C 29.15158521 25.61932773 31.53580291 8163 354 0 0.56500000 0.56500000 0.56500000
C 27.64193597 25.60073409 31.40180660 8164 354 0 0.56500000 0.56500000 0.56500000
H 31.67872489 22.95707661 36.80348112 8165 354 0 1.00000000 1.00000000 1.00000000
H 32.01277904 24.45383989 35.77121848 8166 354 0 1.00000000 1.00000000 1.00000000
H 32.77369970 22.92838070 35.41056602 8167 354 0 1.00000000 1.00000000 1.00000000
H 29.73907571 23.31798828 35.31569731 8168 354 0 1.00000000 1.00000000 1.00000000
H 30.71739689 21.92824211 34.85228878 8169 354 0 1.00000000 1.00000000 1.00000000
H 31.65871414 23.45302169 32.99098505 8170 354 0 1.00000000 1.00000000 1.00000000
H 30.62123205 24.65105678 33.61001262 8171 354 0 1.00000000 1.00000000 1.00000000
H 28.70561919 23.14779930 32.82203011 8172 354 0 1.00000000 1.00000000 1.00000000
H 29.92330075 22.14618393 32.01577631 8173 354 0 1.00000000 1.00000000 1.00000000
H 29.39681514 23.86639295 30.24362779 8174 354 0 1.00000000 1.00000000 1.00000000
H 30.82511491 24.47666294 30.98587109 8175 354 0 1.00000000 1.00000000 1.00000000
H 29.60983306 26.34820377 30.94825809 8176 354 0 1.00000000 1.00000000 1.00000000
H 29.46694374 25.85997675 32.58448214 8177 354 0 1.00000000 1.00000000 1.00000000
H 27.26468755 25.35848113 30.38014331 8178 354 0 1.00000000 1.00000000 1.00000000
H 27.28343766 26.59448988 31.65376364 8179 354 0 1.00000000 1.00000000 1.00000000
H 27.25433164 24.80019451 32.06459437 8180 354 0 1.00000000 1.00000000 1.00000000
C 35.45399851 27.98343854 36.07122870 8181 355 0 0.56500000 0.56500000 0.56500000
C 34.70610596 26.68202912 35.72860426 8182 355 0 0.56500000 0.56500000 0.56500000
C 34.80288611 25.61739286 36.80257835 8183 355 0 0.56500000 0.56500000 0.56500000
C 36.21771779 25.04495033 37.00879872 8184 355 0 0.56500000 0.56500000 0.56500000
C 36.95252821 24.41233782 35.79434877 8185 355 0 0.56500000 0.56500000 0.56500000
C 36.22454688 23.18998062 35.09807213 8186 355 0 0.56500000 0.56500000 0.56500000
C 36.93263304 22.55751375 33.93100602 8187 355 0 0.56500000 0.56500000 0.56500000
H 36.51179634 27.89129407 35.87057632 8188 355 0 1.00000000 1.00000000 1.00000000
H 35.27297873 28.39716494 37.07075808 8189 355 0 1.00000000 1.00000000 1.00000000
H 35.13273629 28.78153135 35.33561511 8190 355 0 1.00000000 1.00000000 1.00000000
H 34.84467015 26.34764961 34.68593430 8191 355 0 1.00000000 1.00000000 1.00000000
H 33.63368140 26.99196233 35.81584836 8192 355 0 1.00000000 1.00000000 1.00000000
H 34.11263630 24.84085509 36.60904433 8193 355 0 1.00000000 1.00000000 1.00000000
H 34.67001958 26.16852379 37.70942409 8194 355 0 1.00000000 1.00000000 1.00000000
H 36.10650787 24.23227837 37.71482853 8195 355 0 1.00000000 1.00000000 1.00000000
H 36.85758183 25.77861047 37.58732347 8196 355 0 1.00000000 1.00000000 1.00000000
H 37.90604481 24.05831628 36.00530425 8197 355 0 1.00000000 1.00000000 1.00000000
H 37.05189190 25.24839040 35.07531505 8198 355 0 1.00000000 1.00000000 1.00000000
H 35.24461419 23.57496379 34.71253071 8199 355 0 1.00000000 1.00000000 1.00000000
H 36.02532119 22.42983255 35.84694562 8200 355 0 1.00000000 1.00000000 1.00000000
H 37.94867105 22.18967148 34.11874665 8201 355 0 1.00000000 1.00000000 1.00000000
H 37.06204177 23.35843515 33.17226869 8202 355 0 1.00000000 1.00000000 1.00000000
H 36.39263976 21.69132855 33.46696835 8203 355 0 1.00000000 1.00000000 1.00000000
C 18.85255084 30.50241197 25.79250634 8204 356 0 0.56500000 0.56500000 0.56500000
C 19.14209900 29.09524934 25.26969388 8205 356 0 0.56500000 0.56500000 0.56500000
C 18.86537807 28.00708987 26.33646971 8206 356 0 0.56500000 0.56500000 0.56500000
C 18.39295183 26.66590214 25.86648827 8207 356 0 0.56500000 0.56500000 0.56500000
C 19.38785943 25.76770878 24.99894624 8208 356 0 0.56500000 0.56500000 0.56500000
C 19.31374896 24.29529559 25.21141348 8209 356 0 0.56500000 0.56500000 0.56500000
C 18.07736230 23.62680998 24.63233007 8210 356 0 0.56500000 0.56500000 0.56500000
H 18.86737533 31.32222527 25.07357970 8211 356 0 1.00000000 1.00000000 1.00000000
H 19.54272235 30.80645896 26.57691032 8212 356 0 1.00000000 1.00000000 1.00000000
H 17.85223616 30.52534214 26.24860264 8213 356 0 1.00000000 1.00000000 1.00000000
H 20.17541625 28.94828306 25.03032765 8214 356 0 1.00000000 1.00000000 1.00000000
H 18.70582556 28.83027225 24.27798354 8215 356 0 1.00000000 1.00000000 1.00000000
H 18.19645339 28.37168945 27.04895924 8216 356 0 1.00000000 1.00000000 1.00000000
H 19.73319390 27.77339579 26.98605258 8217 356 0 1.00000000 1.00000000 1.00000000
H 17.44929950 26.66657745 25.33198619 8218 356 0 1.00000000 1.00000000 1.00000000
H 18.15193281 26.08211911 26.83660801 8219 356 0 1.00000000 1.00000000 1.00000000
H 20.43406244 26.15189583 25.29970950 8220 356 0 1.00000000 1.00000000 1.00000000
H 19.41811317 26.01824005 23.92092535 8221 356 0 1.00000000 1.00000000 1.00000000
H 19.38198452 24.21794979 26.34215982 8222 356 0 1.00000000 1.00000000 1.00000000
H 20.18627711 23.75741861 24.86084666 8223 356 0 1.00000000 1.00000000 1.00000000
H 18.07270498 23.54314039 23.56919071 8224 356 0 1.00000000 1.00000000 1.00000000
H 17.23723348 24.28427431 24.90803301 8225 356 0 1.00000000 1.00000000 1.00000000
H 17.79669012 22.63508820 25.02533338 8226 356 0 1.00000000 1.00000000 1.00000000
C 25.28239938 20.31857860 23.50449079 8227 357 0 0.56500000 0.56500000 0.56500000
C 26.59584952 19.96432715 22.85393447 8228 357 0 0.56500000 0.56500000 0.56500000
C 27.35643700 21.13060269 22.21836572 8229 357 0 0.56500000 0.56500000 0.56500000
C 28.59190998 20.69034860 21.45001094 8230 357 0 0.56500000 0.56500000 0.56500000
C 29.44403612 21.81665073 20.95057996 8231 357 0 0.56500000 0.56500000 0.56500000
C 28.67350711 22.92911282 20.13521469 8232 357 0 0.56500000 0.56500000 0.56500000
C 29.71368129 23.70433944 19.32919180 8233 357 0 0.56500000 0.56500000 0.56500000
H 25.44402406 21.01699704 24.32924044 8234 357 0 1.00000000 1.00000000 1.00000000
H 24.67280529 19.42676208 23.73299188 8235 357 0 1.00000000 1.00000000 1.00000000
H 24.60422497 20.96904824 22.81653304 8236 357 0 1.00000000 1.00000000 1.00000000
H 26.40649759 19.24315052 21.99956462 8237 357 0 1.00000000 1.00000000 1.00000000
H 27.23934224 19.37348819 23.52624764 8238 357 0 1.00000000 1.00000000 1.00000000
H 27.78449559 21.76984215 23.04275439 8239 357 0 1.00000000 1.00000000 1.00000000
H 26.64269262 21.79355962 21.74899397 8240 357 0 1.00000000 1.00000000 1.00000000
H 28.24336880 20.18909962 20.47733915 8241 357 0 1.00000000 1.00000000 1.00000000
H 29.05755068 19.95627462 22.05279734 8242 357 0 1.00000000 1.00000000 1.00000000
H 30.26958033 21.46329224 20.36177050 8243 357 0 1.00000000 1.00000000 1.00000000
H 30.03634119 22.38631322 21.76195201 8244 357 0 1.00000000 1.00000000 1.00000000
H 28.08805120 23.54085180 20.86608872 8245 357 0 1.00000000 1.00000000 1.00000000
H 27.99174198 22.37564127 19.50151904 8246 357 0 1.00000000 1.00000000 1.00000000
H 30.51940777 24.13070734 19.93297114 8247 357 0 1.00000000 1.00000000 1.00000000
H 29.25971599 24.47285498 18.72722094 8248 357 0 1.00000000 1.00000000 1.00000000
H 30.08883786 22.95679312 18.66016516 8249 357 0 1.00000000 1.00000000 1.00000000
C 17.93902324 37.78700924 8.62329433 8250 358 0 0.56500000 0.56500000 0.56500000
C 17.84702055 36.56147307 9.46428486 8251 358 0 0.56500000 0.56500000 0.56500000
C 17.72974728 35.29710067 8.66800815 8252 358 0 0.56500000 0.56500000 0.56500000
C 17.87301897 34.15768253 9.56038358 8253 358 0 0.56500000 0.56500000 0.56500000
C 17.69853234 32.74983289 9.02164776 8254 358 0 0.56500000 0.56500000 0.56500000
C 18.45269573 32.47210651 7.60821638 8255 358 0 0.56500000 0.56500000 0.56500000
C 19.91238272 32.80783571 7.70961846 8256 358 0 0.56500000 0.56500000 0.56500000
H 18.63142108 37.71080591 7.79165894 8257 358 0 1.00000000 1.00000000 1.00000000
H 18.38125172 38.53264200 9.31661944 8258 358 0 1.00000000 1.00000000 1.00000000
H 16.93085204 38.11980628 8.24708050 8259 358 0 1.00000000 1.00000000 1.00000000
H 17.08652024 36.73743477 10.23813260 8260 358 0 1.00000000 1.00000000 1.00000000
H 18.76945667 36.58785479 10.00750385 8261 358 0 1.00000000 1.00000000 1.00000000
H 18.40873131 35.31430983 7.82091508 8262 358 0 1.00000000 1.00000000 1.00000000
H 16.65752915 35.27639283 8.25315993 8263 358 0 1.00000000 1.00000000 1.00000000
H 17.16340531 34.13161982 10.42310089 8264 358 0 1.00000000 1.00000000 1.00000000
H 18.88875276 34.21308536 10.04549267 8265 358 0 1.00000000 1.00000000 1.00000000
H 16.59734668 32.47957273 8.88902805 8266 358 0 1.00000000 1.00000000 1.00000000
H 18.15918680 32.07082508 9.78401716 8267 358 0 1.00000000 1.00000000 1.00000000
H 17.97755065 33.10729053 6.84410603 8268 358 0 1.00000000 1.00000000 1.00000000
H 18.32795502 31.33429020 7.39435573 8269 358 0 1.00000000 1.00000000 1.00000000
H 20.49913897 32.34630046 8.49691353 8270 358 0 1.00000000 1.00000000 1.00000000
H 20.04856242 33.91113417 7.92509213 8271 358 0 1.00000000 1.00000000 1.00000000
H 20.47405244 32.62610474 6.78776517 8272 358 0 1.00000000 1.00000000 1.00000000
C 40.44985223 19.62085893 10.67385242 8273 359 0 0.56500000 0.56500000 0.56500000
C 40.14518564 19.98453750 12.12684050 8274 359 0 0.56500000 0.56500000 0.56500000
C 39.78737506 18.90389549 13.14090251 8275 359 0 0.56500000 0.56500000 0.56500000
C 39.69990601 19.37581378 14.53573433 8276 359 0 0.56500000 0.56500000 0.56500000
C 38.77885187 18.57770478 15.47055732 8277 359 0 0.56500000 0.56500000 0.56500000
C 39.00276219 18.83669990 16.97276043 8278 359 0 0.56500000 0.56500000 0.56500000
C 38.41788881 20.22425327 17.42981916 8279 359 0 0.56500000 0.56500000 0.56500000
H 41.37233163 18.91901355 10.54736174 8280 359 0 1.00000000 1.00000000 1.00000000
H 40.65473224 20.58286061 10.19225563 8281 359 0 1.00000000 1.00000000 1.00000000
H 39.48860886 19.19547237 10.17900710 8282 359 0 1.00000000 1.00000000 1.00000000
H 39.38249827 20.76949708 12.17149287 8283 359 0 1.00000000 1.00000000 1.00000000
H 41.04327884 20.46955682 12.57209493 8284 359 0 1.00000000 1.00000000 1.00000000
H 40.44253544 18.08474862 13.05012283 8285 359 0 1.00000000 1.00000000 1.00000000
H 38.74763184 18.53884880 12.90113021 8286 359 0 1.00000000 1.00000000 1.00000000
H 39.48860150 20.45141080 14.49175607 8287 359 0 1.00000000 1.00000000 1.00000000
H 40.64953894 19.45148568 14.99139262 8288 359 0 1.00000000 1.00000000 1.00000000
H 38.88883876 17.43569904 15.33492849 8289 359 0 1.00000000 1.00000000 1.00000000
H 37.73777189 18.64588378 15.11143011 8290 359 0 1.00000000 1.00000000 1.00000000
H 40.07277733 18.75268017 17.22604854 8291 359 0 1.00000000 1.00000000 1.00000000
H 38.40711176 18.14305116 17.61934193 8292 359 0 1.00000000 1.00000000 1.00000000
H 39.12632354 21.07884718 17.28518213 8293 359 0 1.00000000 1.00000000 1.00000000
H 38.27120639 20.22087479 18.50439272 8294 359 0 1.00000000 1.00000000 1.00000000
H 37.47191220 20.39639940 16.94878742 8295 359 0 1.00000000 1.00000000 1.00000000
C 14.60399347 19.95245999 13.03768952 8296 360 0 0.56500000 0.56500000 0.56500000
C 14.38721334 18.52629318 13.30473403 8297 360 0 0.56500000 0.56500000 0.56500000
C 15.23645591 18.00420862 14.47196378 8298 360 0 0.56500000 0.56500000 0.56500000
C 14.92856785 16.56839042 14.98839014 8299 360 0 0.56500000 0.56500000 0.56500000
C 16.13315391 15.86861730 15.53659808 8300 360 0 0.56500000 0.56500000 0.56500000
C 16.74716217 16.64890570 16.67993370 8301 360 0 0.56500000 0.56500000 0.56500000
C 17.91229516 15.88586000 17.34306948 8302 360 0 0.56500000 0.56500000 0.56500000
H 14.44444945 20.53443274 13.97371808 8303 360 0 1.00000000 1.00000000 1.00000000
H 13.96655073 20.39074524 12.24201160 8304 360 0 1.00000000 1.00000000 1.00000000
H 15.59439783 20.06118682 12.69130938 8305 360 0 1.00000000 1.00000000 1.00000000
H 14.68451239 17.85705287 12.47134112 8306 360 0 1.00000000 1.00000000 1.00000000
H 13.29249292 18.36357179 13.49416637 8307 360 0 1.00000000 1.00000000 1.00000000
H 15.09726646 18.80120623 15.25727685 8308 360 0 1.00000000 1.00000000 1.00000000
H 16.28345483 18.01995818 14.18158274 8309 360 0 1.00000000 1.00000000 1.00000000
H 14.36047699 15.97988105 14.15281943 8310 360 0 1.00000000 1.00000000 1.00000000
H 14.17150078 16.73430002 15.82410523 8311 360 0 1.00000000 1.00000000 1.00000000
H 16.85095744 15.62470426 14.72530429 8312 360 0 1.00000000 1.00000000 1.00000000
H 15.80656620 14.89700655 15.99918628 8313 360 0 1.00000000 1.00000000 1.00000000
H 15.96573282 16.89087280 17.47035964 8314 360 0 1.00000000 1.00000000 1.00000000
H 17.01712519 17.66092486 16.32009980 8315 360 0 1.00000000 1.00000000 1.00000000
H 17.58363080 14.90755169 17.72307694 8316 360 0 1.00000000 1.00000000 1.00000000
H 18.37604808 16.35170912 18.13896278 8317 360 0 1.00000000 1.00000000 1.00000000
H 18.77444706 15.70038636 16.68916415 8318 360 0 1.00000000 1.00000000 1.00000000
C 7.16988394 18.50587645 -1.67370131 8319 361 0 0.56500000 0.56500000 0.56500000
C 7.28307264 17.09778187 -2.23537428 8320 361 0 0.56500000 0.56500000 0.56500000
C 7.40016302 16.02467628 -1.18740378 8321 361 0 0.56500000 0.56500000 0.56500000
C 6.10627744 15.64346958 -0.50224534 8322 361 0 0.56500000 0.56500000 0.56500000
C 6.25321616 14.44998090 0.42034763 8323 361 0 0.56500000 0.56500000 0.56500000
C 4.99571752 14.11297754 1.27211092 8324 361 0 0.56500000 0.56500000 0.56500000
C 3.87164933 13.59215206 0.43089412 8325 361 0 0.56500000 0.56500000 0.56500000
H 7.98018966 18.88586908 -1.11861728 8326 361 0 1.00000000 1.00000000 1.00000000
H 6.26556622 18.72789198 -1.05802045 8327 361 0 1.00000000 1.00000000 1.00000000
H 7.10537844 19.16441456 -2.57939420 8328 361 0 1.00000000 1.00000000 1.00000000
H 8.17241767 17.07285563 -2.81278470 8329 361 0 1.00000000 1.00000000 1.00000000
H 6.47193941 16.75872358 -2.90537503 8330 361 0 1.00000000 1.00000000 1.00000000
H 8.06163737 16.29012661 -0.32160692 8331 361 0 1.00000000 1.00000000 1.00000000
H 7.81403652 15.02450092 -1.48334464 8332 361 0 1.00000000 1.00000000 1.00000000
H 5.35563259 15.35669964 -1.28592739 8333 361 0 1.00000000 1.00000000 1.00000000
H 5.54261820 16.44535191 0.00600173 8334 361 0 1.00000000 1.00000000 1.00000000
H 7.11509776 14.73515884 1.08200466 8335 361 0 1.00000000 1.00000000 1.00000000
H 6.57789127 13.58252992 -0.09069683 8336 361 0 1.00000000 1.00000000 1.00000000
H 4.66139105 15.13733939 1.68156869 8337 361 0 1.00000000 1.00000000 1.00000000
H 5.13764923 13.45521179 2.15554562 8338 361 0 1.00000000 1.00000000 1.00000000
H 3.63312961 14.31303858 -0.36359503 8339 361 0 1.00000000 1.00000000 1.00000000
H 2.93521976 13.47383669 1.08906522 8340 361 0 1.00000000 1.00000000 1.00000000
H 4.05527437 12.65217922 -0.05107452 8341 361 0 1.00000000 1.00000000 1.00000000
C 25.03997960 41.52895720 18.84313183 8342 362 0 0.56500000 0.56500000 0.56500000
C 26.39058402 40.76610252 18.60560599 8343 362 0 0.56500000 0.56500000 0.56500000
C 26.99727500 41.16543269 17.24198238 8344 362 0 0.56500000 0.56500000 0.56500000
C 28.51727619 41.05486214 17.25150035 8345 362 0 0.56500000 0.56500000 0.56500000
C 29.22805867 42.24365111 17.81752323 8346 362 0 0.56500000 0.56500000 0.56500000
C 30.67941028 41.94402093 18.26913525 8347 362 0 0.56500000 0.56500000 0.56500000
C 31.36793816 43.10555384 19.01272490 8348 362 0 0.56500000 0.56500000 0.56500000
H 24.45137988 41.19241395 19.67976172 8349 362 0 1.00000000 1.00000000 1.00000000
H 24.39803694 41.18078013 18.05357978 8350 362 0 1.00000000 1.00000000 1.00000000
H 25.14530816 42.66738094 18.89391452 8351 362 0 1.00000000 1.00000000 1.00000000
H 26.15530936 39.70137280 18.65042300 8352 362 0 1.00000000 1.00000000 1.00000000
H 27.07918481 40.81358979 19.48852288 8353 362 0 1.00000000 1.00000000 1.00000000
H 26.73001986 42.26432981 16.91132277 8354 362 0 1.00000000 1.00000000 1.00000000
H 26.49351872 40.50000380 16.52529471 8355 362 0 1.00000000 1.00000000 1.00000000
H 28.79114993 40.99720908 16.19476110 8356 362 0 1.00000000 1.00000000 1.00000000
H 28.79571692 40.15303110 17.89582085 8357 362 0 1.00000000 1.00000000 1.00000000
H 28.66173002 42.68947221 18.67983295 8358 362 0 1.00000000 1.00000000 1.00000000
H 29.27792910 43.08342207 17.12687742 8359 362 0 1.00000000 1.00000000 1.00000000
H 31.31500034 41.65812945 17.43766137 8360 362 0 1.00000000 1.00000000 1.00000000
H 30.59911869 40.98478556 18.89934006 8361 362 0 1.00000000 1.00000000 1.00000000
H 32.30707425 42.81249868 19.40905449 8362 362 0 1.00000000 1.00000000 1.00000000
H 30.76645523 43.42862585 19.85907742 8363 362 0 1.00000000 1.00000000 1.00000000
H 31.55788843 43.89190091 18.34178608 8364 362 0 1.00000000 1.00000000 1.00000000
C 32.91767640 17.77497443 16.74910086 8365 363 0 0.56500000 0.56500000 0.56500000
C 33.01741367 17.22539962 15.32320119 8366 363 0 0.56500000 0.56500000 0.56500000
C 33.02167376 18.31860832 14.22250433 8367 363 0 0.56500000 0.56500000 0.56500000
C 33.46222437 17.87924424 12.79834259 8368 363 0 0.56500000 0.56500000 0.56500000
C 34.71080242 16.94922166 12.62508403 8369 363 0 0.56500000 0.56500000 0.56500000
C 34.84633200 16.40075225 11.23967610 8370 363 0 0.56500000 0.56500000 0.56500000
C 36.33561353 15.96935333 11.07323534 8371 363 0 0.56500000 0.56500000 0.56500000
H 33.63763599 18.50257521 17.05254248 8372 363 0 1.00000000 1.00000000 1.00000000
H 32.99135328 16.95198849 17.49829875 8373 363 0 1.00000000 1.00000000 1.00000000
H 31.91856373 18.26366963 16.81299394 8374 363 0 1.00000000 1.00000000 1.00000000
H 32.23761480 16.45837645 15.22173648 8375 363 0 1.00000000 1.00000000 1.00000000
H 33.92870589 16.69367165 15.24192902 8376 363 0 1.00000000 1.00000000 1.00000000
H 33.78057204 19.10146964 14.53024648 8377 363 0 1.00000000 1.00000000 1.00000000
H 32.07796146 18.88933559 14.19141512 8378 363 0 1.00000000 1.00000000 1.00000000
H 33.70140834 18.79279821 12.28077833 8379 363 0 1.00000000 1.00000000 1.00000000
H 32.65868163 17.33151629 12.27753490 8380 363 0 1.00000000 1.00000000 1.00000000
H 34.63418650 16.19269084 13.33154190 8381 363 0 1.00000000 1.00000000 1.00000000
H 35.58805605 17.49421062 12.94553924 8382 363 0 1.00000000 1.00000000 1.00000000
H 34.62466308 17.09766373 10.41998073 8383 363 0 1.00000000 1.00000000 1.00000000
H 34.26197887 15.49184697 11.07506882 8384 363 0 1.00000000 1.00000000 1.00000000
H 36.64296998 15.25414712 11.76446167 8385 363 0 1.00000000 1.00000000 1.00000000
H 36.96246166 16.86630767 11.17507815 8386 363 0 1.00000000 1.00000000 1.00000000
H 36.48044767 15.41976170 10.11472129 8387 363 0 1.00000000 1.00000000 1.00000000
C 37.44353346 18.49190614 34.07833798 8388 364 0 0.56500000 0.56500000 0.56500000
C 38.35137772 17.93475957 33.02724261 8389 364 0 0.56500000 0.56500000 0.56500000
C 39.28197095 18.78054138 32.15038160 8390 364 0 0.56500000 0.56500000 0.56500000
C 40.20287217 19.68921894 32.86939415 8391 364 0 0.56500000 0.56500000 0.56500000
C 41.15889698 20.27332211 31.87882933 8392 364 0 0.56500000 0.56500000 0.56500000
C 42.21131432 21.23920719 32.48994101 8393 364 0 0.56500000 0.56500000 0.56500000
C 43.11060457 21.79786123 31.43131964 8394 364 0 0.56500000 0.56500000 0.56500000
H 36.62538310 17.78063089 34.32433056 8395 364 0 1.00000000 1.00000000 1.00000000
H 37.04702042 19.40447797 33.70180901 8396 364 0 1.00000000 1.00000000 1.00000000
H 37.95668666 18.81749930 34.95880767 8397 364 0 1.00000000 1.00000000 1.00000000
H 37.79727130 17.37954875 32.30486674 8398 364 0 1.00000000 1.00000000 1.00000000
H 38.97084256 17.09712062 33.51613167 8399 364 0 1.00000000 1.00000000 1.00000000
H 38.69649331 19.41039785 31.39178734 8400 364 0 1.00000000 1.00000000 1.00000000
H 39.79978220 18.15044314 31.47053479 8401 364 0 1.00000000 1.00000000 1.00000000
H 40.78441656 19.29405709 33.75553810 8402 364 0 1.00000000 1.00000000 1.00000000
H 39.64674868 20.46444910 33.37937480 8403 364 0 1.00000000 1.00000000 1.00000000
H 40.55706336 20.70572420 31.03831549 8404 364 0 1.00000000 1.00000000 1.00000000
H 41.70387805 19.49158365 31.28537229 8405 364 0 1.00000000 1.00000000 1.00000000
H 42.74188736 20.70790550 33.30593682 8406 364 0 1.00000000 1.00000000 1.00000000
H 41.81508012 22.13360313 32.99283463 8407 364 0 1.00000000 1.00000000 1.00000000
H 42.66637383 21.54755410 30.47263303 8408 364 0 1.00000000 1.00000000 1.00000000
H 44.06573613 21.25724773 31.43675067 8409 364 0 1.00000000 1.00000000 1.00000000
H 43.31160875 22.86619587 31.55768191 8410 364 0 1.00000000 1.00000000 1.00000000
C 2.49097462 42.72172354 -0.30884502 8411 365 0 0.56500000 0.56500000 0.56500000
C 1.50575747 43.05868046 0.79237502 8412 365 0 0.56500000 0.56500000 0.56500000
C 0.38387115 41.95553114 1.01046285 8413 365 0 0.56500000 0.56500000 0.56500000
C -0.50338984 42.39062004 2.18780306 8414 365 0 0.56500000 0.56500000 0.56500000
C -1.71468899 43.37657767 1.95941777 8415 365 0 0.56500000 0.56500000 0.56500000
C -2.53130300 43.63714596 3.24549472 8416 365 0 0.56500000 0.56500000 0.56500000
C -1.71411013 44.42443950 4.26533817 8417 365 0 0.56500000 0.56500000 0.56500000
H 2.94705596 41.78920730 -0.15520103 8418 365 0 1.00000000 1.00000000 1.00000000
H 3.36020788 43.42453096 -0.24442779 8419 365 0 1.00000000 1.00000000 1.00000000
H 1.99349487 42.67648550 -1.25557024 8420 365 0 1.00000000 1.00000000 1.00000000
H 1.12991930 44.05878043 0.64729204 8421 365 0 1.00000000 1.00000000 1.00000000
H 1.99478433 43.00884576 1.72409483 8422 365 0 1.00000000 1.00000000 1.00000000
H 0.84776050 40.95214479 1.32910461 8423 365 0 1.00000000 1.00000000 1.00000000
H -0.11389002 41.78483964 0.07060019 8424 365 0 1.00000000 1.00000000 1.00000000
H 0.15327568 42.84096853 2.90227259 8425 365 0 1.00000000 1.00000000 1.00000000
H -0.94288008 41.51772725 2.67692192 8426 365 0 1.00000000 1.00000000 1.00000000
H -2.33531343 43.07665767 1.09975641 8427 365 0 1.00000000 1.00000000 1.00000000
H -1.21490615 44.36393743 1.73422688 8428 365 0 1.00000000 1.00000000 1.00000000
H -3.05330172 42.73174100 3.63088596 8429 365 0 1.00000000 1.00000000 1.00000000
H -3.37639269 44.32722050 2.89894599 8430 365 0 1.00000000 1.00000000 1.00000000
H -2.17302589 44.74703395 5.11892403 8431 365 0 1.00000000 1.00000000 1.00000000
H -1.28524643 45.22066782 3.70016136 8432 365 0 1.00000000 1.00000000 1.00000000
H -0.80322902 43.88624415 4.64936456 8433 365 0 1.00000000 1.00000000 1.00000000
C 21.85636317 32.08879865 1.29008558 8434 366 0 0.56500000 0.56500000 0.56500000
C 22.34182152 30.75747618 1.71435451 8435 366 0 0.56500000 0.56500000 0.56500000
C 23.80642320 30.53498335 1.46214242 8436 366 0 0.56500000 0.56500000 0.56500000
C 24.22728391 29.15203355 1.83206298 8437 366 0 0.56500000 0.56500000 0.56500000
C 25.74189239 28.80139039 1.45715000 8438 366 0 0.56500000 0.56500000 0.56500000
C 26.37741702 27.57490512 2.19592529 8439 366 0 0.56500000 0.56500000 0.56500000
C 27.51729465 26.97838912 1.43176656 8440 366 0 0.56500000 0.56500000 0.56500000
H 20.75500012 32.04226934 1.31901227 8441 366 0 1.00000000 1.00000000 1.00000000
H 22.17797744 32.39780292 0.27275491 8442 366 0 1.00000000 1.00000000 1.00000000
H 22.11128186 32.91534696 1.93152789 8443 366 0 1.00000000 1.00000000 1.00000000
H 21.82032510 30.03697649 1.10231928 8444 366 0 1.00000000 1.00000000 1.00000000
H 22.08414748 30.53971345 2.76920966 8445 366 0 1.00000000 1.00000000 1.00000000
H 24.45561286 31.23130339 2.01999457 8446 366 0 1.00000000 1.00000000 1.00000000
H 24.10268803 30.81172195 0.39496741 8447 366 0 1.00000000 1.00000000 1.00000000
H 23.44396143 28.34513655 1.58962534 8448 366 0 1.00000000 1.00000000 1.00000000
H 24.23488997 29.11005156 2.91928501 8449 366 0 1.00000000 1.00000000 1.00000000
H 26.29365846 29.73698605 1.63439180 8450 366 0 1.00000000 1.00000000 1.00000000
H 25.89421758 28.70809300 0.32946674 8451 366 0 1.00000000 1.00000000 1.00000000
H 25.59371461 26.82441916 2.35006939 8452 366 0 1.00000000 1.00000000 1.00000000
H 26.72360691 27.81562048 3.22116221 8453 366 0 1.00000000 1.00000000 1.00000000
H 27.18060188 26.66309838 0.43958123 8454 366 0 1.00000000 1.00000000 1.00000000
H 27.87697032 26.07958287 1.98448728 8455 366 0 1.00000000 1.00000000 1.00000000
H 28.33186237 27.70722849 1.22468721 8456 366 0 1.00000000 1.00000000 1.00000000
C 8.81211653 32.98899318 0.69020631 8457 367 0 0.56500000 0.56500000 0.56500000
C 9.21181660 32.53059351 -0.72162073 8458 367 0 0.56500000 0.56500000 0.56500000
C 10.70773494 32.16895723 -0.86675308 8459 367 0 0.56500000 0.56500000 0.56500000
C 11.00077653 31.79268385 -2.30360859 8460 367 0 0.56500000 0.56500000 0.56500000
C 10.36495890 30.39644788 -2.59907877 8461 367 0 0.56500000 0.56500000 0.56500000
C 10.95416320 29.66398621 -3.78138774 8462 367 0 0.56500000 0.56500000 0.56500000
C 12.49906132 29.17093138 -3.77597655 8463 367 0 0.56500000 0.56500000 0.56500000
H 7.99059819 33.69708204 0.72895402 8464 367 0 1.00000000 1.00000000 1.00000000
H 9.63548792 33.67666304 1.09667639 8465 367 0 1.00000000 1.00000000 1.00000000
H 8.70452530 32.26706599 1.46978253 8466 367 0 1.00000000 1.00000000 1.00000000
H 8.94138063 33.27597772 -1.50920682 8467 367 0 1.00000000 1.00000000 1.00000000
H 8.60849213 31.61388789 -0.96457895 8468 367 0 1.00000000 1.00000000 1.00000000
H 10.95276645 31.25679302 -0.33529688 8469 367 0 1.00000000 1.00000000 1.00000000
H 11.27662596 33.05656326 -0.49801834 8470 367 0 1.00000000 1.00000000 1.00000000
H 12.05673461 31.76339243 -2.60963216 8471 367 0 1.00000000 1.00000000 1.00000000
H 10.49955146 32.56237522 -2.84366019 8472 367 0 1.00000000 1.00000000 1.00000000
H 9.30325552 30.51631672 -2.75407047 8473 367 0 1.00000000 1.00000000 1.00000000
H 10.34450123 29.80929868 -1.65469067 8474 367 0 1.00000000 1.00000000 1.00000000
H 10.82373091 30.32690113 -4.69937314 8475 367 0 1.00000000 1.00000000 1.00000000
H 10.44390982 28.70565686 -3.98918801 8476 367 0 1.00000000 1.00000000 1.00000000
H 12.45471964 28.38647841 -2.98109364 8477 367 0 1.00000000 1.00000000 1.00000000
H 13.09906199 30.02811793 -3.43795840 8478 367 0 1.00000000 1.00000000 1.00000000
H 12.93158894 28.76608132 -4.70843689 8479 367 0 1.00000000 1.00000000 1.00000000
C 18.94561743 3.30334780 11.28217759 8480 368 0 0.56500000 0.56500000 0.56500000
C 18.05933151 4.53922679 10.99092993 8481 368 0 0.56500000 0.56500000 0.56500000
C 16.57935805 4.11423086 10.92470802 8482 368 0 0.56500000 0.56500000 0.56500000
C 15.52834887 5.18540658 11.28490422 8483 368 0 0.56500000 0.56500000 0.56500000
C 15.57962705 6.45438919 10.45777397 8484 368 0 0.56500000 0.56500000 0.56500000
C 14.36401089 7.38482797 10.72193927 8485 368 0 0.56500000 0.56500000 0.56500000
C 14.22269914 8.39610811 9.61501176 8486 368 0 0.56500000 0.56500000 0.56500000
H 19.37743344 2.85165461 10.43054187 8487 368 0 1.00000000 1.00000000 1.00000000
H 18.38304669 2.55785248 11.84832006 8488 368 0 1.00000000 1.00000000 1.00000000
H 19.81322700 3.59004054 11.96962774 8489 368 0 1.00000000 1.00000000 1.00000000
H 18.38639261 5.05690365 10.08077590 8490 368 0 1.00000000 1.00000000 1.00000000
H 18.24679223 5.22832251 11.87883340 8491 368 0 1.00000000 1.00000000 1.00000000
H 16.51234544 3.25830869 11.54226707 8492 368 0 1.00000000 1.00000000 1.00000000
H 16.29625695 3.81981425 9.93381562 8493 368 0 1.00000000 1.00000000 1.00000000
H 15.57779551 5.44797300 12.32125596 8494 368 0 1.00000000 1.00000000 1.00000000
H 14.52347648 4.74431172 11.14394487 8495 368 0 1.00000000 1.00000000 1.00000000
H 15.44813614 6.25065414 9.38323472 8496 368 0 1.00000000 1.00000000 1.00000000
H 16.39891604 7.01291578 10.74870949 8497 368 0 1.00000000 1.00000000 1.00000000
H 14.55537145 7.94143722 11.63716215 8498 368 0 1.00000000 1.00000000 1.00000000
H 13.44887114 6.81145782 10.98359492 8499 368 0 1.00000000 1.00000000 1.00000000
H 13.58314306 9.15960701 9.97922965 8500 368 0 1.00000000 1.00000000 1.00000000
H 13.77784411 7.95384691 8.68793551 8501 368 0 1.00000000 1.00000000 1.00000000
H 15.13793051 8.73824702 9.21979304 8502 368 0 1.00000000 1.00000000 1.00000000
C 24.57462390 5.57466116 -1.30696402 8503 369 0 0.56500000 0.56500000 0.56500000
C 25.45927995 6.85857629 -1.64330949 8504 369 0 0.56500000 0.56500000 0.56500000
C 26.70680026 6.88910806 -0.81465472 8505 369 0 0.56500000 0.56500000 0.56500000
C 26.41430006 7.00284448 0.65551545 8506 369 0 0.56500000 0.56500000 0.56500000
C 27.72916322 6.82137817 1.50150979 8507 369 0 0.56500000 0.56500000 0.56500000
C 27.46991771 6.72500500 2.95674128 8508 369 0 0.56500000 0.56500000 0.56500000
C 27.11788553 8.06012468 3.54717385 8509 369 0 0.56500000 0.56500000 0.56500000
H 24.93972623 4.56130873 -1.52966056 8510 369 0 1.00000000 1.00000000 1.00000000
H 23.62180595 5.69507894 -1.89638293 8511 369 0 1.00000000 1.00000000 1.00000000
H 24.28360685 5.54878696 -0.28438490 8512 369 0 1.00000000 1.00000000 1.00000000
H 24.79212334 7.66889786 -1.40277693 8513 369 0 1.00000000 1.00000000 1.00000000
H 25.63789001 6.87084978 -2.72890679 8514 369 0 1.00000000 1.00000000 1.00000000
H 27.30275962 7.69511311 -1.21147269 8515 369 0 1.00000000 1.00000000 1.00000000
H 27.25468718 6.00207603 -1.04107870 8516 369 0 1.00000000 1.00000000 1.00000000
H 25.76355940 6.19931824 1.00911422 8517 369 0 1.00000000 1.00000000 1.00000000
H 25.99425155 8.01070183 0.95946451 8518 369 0 1.00000000 1.00000000 1.00000000
H 28.51855297 7.55922165 1.22712540 8519 369 0 1.00000000 1.00000000 1.00000000
H 28.14374431 5.79631342 1.16190271 8520 369 0 1.00000000 1.00000000 1.00000000
H 28.28317896 6.23323475 3.47227882 8521 369 0 1.00000000 1.00000000 1.00000000
H 26.63308097 6.04126516 3.17117839 8522 369 0 1.00000000 1.00000000 1.00000000
H 27.94602285 8.77749020 3.36533870 8523 369 0 1.00000000 1.00000000 1.00000000
H 26.94928398 7.90244925 4.65687055 8524 369 0 1.00000000 1.00000000 1.00000000
H 26.30160025 8.61100073 3.06394883 8525 369 0 1.00000000 1.00000000 1.00000000
C 11.25818565 31.60543624 36.31197227 8526 370 0 0.56500000 0.56500000 0.56500000
C 12.46786244 32.04391927 37.13805977 8527 370 0 0.56500000 0.56500000 0.56500000
C 13.33968738 33.01597872 36.38839444 8528 370 0 0.56500000 0.56500000 0.56500000
C 14.15419641 32.17998147 35.31153836 8529 370 0 0.56500000 0.56500000 0.56500000
C 14.86832295 33.09384786 34.17883099 8530 370 0 0.56500000 0.56500000 0.56500000
C 13.84761419 33.84691641 33.29004402 8531 370 0 0.56500000 0.56500000 0.56500000
C 14.41219230 34.99325538 32.42760882 8532 370 0 0.56500000 0.56500000 0.56500000
H 10.56203008 32.47283322 36.24976770 8533 370 0 1.00000000 1.00000000 1.00000000
H 10.73915679 30.73487892 36.78151776 8534 370 0 1.00000000 1.00000000 1.00000000
H 11.46434120 31.20696372 35.33602167 8535 370 0 1.00000000 1.00000000 1.00000000
H 13.16983538 31.30919765 37.53109467 8536 370 0 1.00000000 1.00000000 1.00000000
H 12.06432273 32.63915984 38.04476569 8537 370 0 1.00000000 1.00000000 1.00000000
H 13.96239331 33.53784876 37.04905467 8538 370 0 1.00000000 1.00000000 1.00000000
H 12.69983658 33.76819215 35.92436935 8539 370 0 1.00000000 1.00000000 1.00000000
H 13.41754937 31.54875748 34.80045225 8540 370 0 1.00000000 1.00000000 1.00000000
H 14.89031292 31.56462988 35.85113382 8541 370 0 1.00000000 1.00000000 1.00000000
H 15.52479872 32.41400157 33.67292919 8542 370 0 1.00000000 1.00000000 1.00000000
H 15.50674609 33.86728612 34.65549382 8543 370 0 1.00000000 1.00000000 1.00000000
H 13.08266437 34.41538385 33.86381967 8544 370 0 1.00000000 1.00000000 1.00000000
H 13.32399994 33.11487814 32.67398938 8545 370 0 1.00000000 1.00000000 1.00000000
H 13.61672126 35.53700118 32.11297720 8546 370 0 1.00000000 1.00000000 1.00000000
H 15.08330873 34.62466523 31.66692323 8547 370 0 1.00000000 1.00000000 1.00000000
H 14.92941395 35.69620364 33.13174648 8548 370 0 1.00000000 1.00000000 1.00000000
C 20.56247040 42.27602963 36.42616113 8549 371 0 0.56500000 0.56500000 0.56500000
C 20.58640216 43.68262399 37.06284985 8550 371 0 0.56500000 0.56500000 0.56500000
C 21.97369732 44.26226705 37.20156878 8551 371 0 0.56500000 0.56500000 0.56500000
C 22.89663532 44.21674034 36.02579880 8552 371 0 0.56500000 0.56500000 0.56500000
C 22.29171395 44.86049492 34.75947960 8553 371 0 0.56500000 0.56500000 0.56500000
C 23.17149442 45.02281010 33.55971125 8554 371 0 0.56500000 0.56500000 0.56500000
C 22.42119363 45.62754828 32.31354282 8555 371 0 0.56500000 0.56500000 0.56500000
H 20.77366395 42.29881996 35.33928793 8556 371 0 1.00000000 1.00000000 1.00000000
H 19.59111818 41.79668850 36.78354292 8557 371 0 1.00000000 1.00000000 1.00000000
H 21.44927604 41.70268791 36.91339501 8558 371 0 1.00000000 1.00000000 1.00000000
H 20.08723153 43.56224954 38.04743915 8559 371 0 1.00000000 1.00000000 1.00000000
H 19.94700760 44.35931212 36.54835374 8560 371 0 1.00000000 1.00000000 1.00000000
H 22.46233638 43.78530013 38.03744374 8561 371 0 1.00000000 1.00000000 1.00000000
H 21.87354524 45.24282459 37.63652319 8562 371 0 1.00000000 1.00000000 1.00000000
H 23.14294915 43.14129546 35.77497361 8563 371 0 1.00000000 1.00000000 1.00000000
H 23.84613887 44.63369920 36.37859469 8564 371 0 1.00000000 1.00000000 1.00000000
H 21.89591100 45.89099636 34.99366198 8565 371 0 1.00000000 1.00000000 1.00000000
H 21.37964508 44.32175947 34.46612092 8566 371 0 1.00000000 1.00000000 1.00000000
H 23.47219280 44.04164042 33.21876033 8567 371 0 1.00000000 1.00000000 1.00000000
H 24.14819793 45.54468626 33.81603967 8568 371 0 1.00000000 1.00000000 1.00000000
H 22.02314463 46.62950455 32.56415431 8569 371 0 1.00000000 1.00000000 1.00000000
H 21.64632260 44.92825856 32.01235377 8570 371 0 1.00000000 1.00000000 1.00000000
H 23.11683224 45.81171877 31.49694810 8571 371 0 1.00000000 1.00000000 1.00000000
C 31.47541422 46.33250882 6.03441212 8572 372 0 0.56500000 0.56500000 0.56500000
C 32.95526836 46.02226016 5.65709506 8573 372 0 0.56500000 0.56500000 0.56500000
C 33.64130899 47.12190490 4.91061963 8574 372 0 0.56500000 0.56500000 0.56500000
C 33.17410828 47.12732738 3.48374031 8575 372 0 0.56500000 0.56500000 0.56500000
C 33.73394984 46.02113349 2.56709731 8576 372 0 0.56500000 0.56500000 0.56500000
C 33.23584464 46.04095816 1.03289655 8577 372 0 0.56500000 0.56500000 0.56500000
C 33.55201472 47.36890060 0.29168092 8578 372 0 0.56500000 0.56500000 0.56500000
H 30.86800660 46.60065389 5.17225926 8579 372 0 1.00000000 1.00000000 1.00000000
H 31.44467511 47.05263201 6.88894354 8580 372 0 1.00000000 1.00000000 1.00000000
H 31.09613602 45.43031159 6.35057426 8581 372 0 1.00000000 1.00000000 1.00000000
H 32.91732075 45.08964880 5.14268757 8582 372 0 1.00000000 1.00000000 1.00000000
H 33.62148663 45.93826955 6.61003601 8583 372 0 1.00000000 1.00000000 1.00000000
H 34.74423221 46.95125604 4.85462399 8584 372 0 1.00000000 1.00000000 1.00000000
H 33.36862294 48.11677633 5.34726645 8585 372 0 1.00000000 1.00000000 1.00000000
H 33.46105750 48.08898997 2.97024322 8586 372 0 1.00000000 1.00000000 1.00000000
H 32.06616869 47.10529080 3.43578233 8587 372 0 1.00000000 1.00000000 1.00000000
H 33.61152624 44.93767249 2.96331007 8588 372 0 1.00000000 1.00000000 1.00000000
H 34.83115778 46.29100555 2.52935473 8589 372 0 1.00000000 1.00000000 1.00000000
H 32.18880100 45.86835926 0.96646590 8590 372 0 1.00000000 1.00000000 1.00000000
H 33.75083159 45.23038058 0.48836660 8591 372 0 1.00000000 1.00000000 1.00000000
H 34.44598064 47.80421713 0.68388570 8592 372 0 1.00000000 1.00000000 1.00000000
H 32.77722252 48.14901949 0.27998551 8593 372 0 1.00000000 1.00000000 1.00000000
H 33.79631275 47.17307747 -0.75875933 8594 372 0 1.00000000 1.00000000 1.00000000
C 37.70477875 34.17811392 21.07919090 8595 373 0 0.56500000 0.56500000 0.56500000
C 38.22623804 35.50554250 21.68554228 8596 373 0 0.56500000 0.56500000 0.56500000
C 37.65990571 36.60837864 20.83665563 8597 373 0 0.56500000 0.56500000 0.56500000
C 36.29463725 37.02044147 21.28376646 8598 373 0 0.56500000 0.56500000 0.56500000
C 35.74168199 38.27519045 20.58436792 8599 373 0 0.56500000 0.56500000 0.56500000
C 34.23228025 38.39258431 20.66488055 8600 373 0 0.56500000 0.56500000 0.56500000
C 33.62900346 39.70765551 20.22045515 8601 373 0 0.56500000 0.56500000 0.56500000
H 36.58814749 34.25853073 21.00490951 8602 373 0 1.00000000 1.00000000 1.00000000
H 37.94294980 33.36101002 21.70737982 8603 373 0 1.00000000 1.00000000 1.00000000
H 38.17261026 34.07482713 20.07769154 8604 373 0 1.00000000 1.00000000 1.00000000
H 39.32797721 35.62913840 21.66096607 8605 373 0 1.00000000 1.00000000 1.00000000
H 37.95880978 35.66421444 22.77015137 8606 373 0 1.00000000 1.00000000 1.00000000
H 37.70356432 36.28431421 19.77286877 8607 373 0 1.00000000 1.00000000 1.00000000
H 38.33559628 37.48652209 20.99816359 8608 373 0 1.00000000 1.00000000 1.00000000
H 36.25117381 37.11191733 22.35845812 8609 373 0 1.00000000 1.00000000 1.00000000
H 35.67797293 36.18169306 21.04172416 8610 373 0 1.00000000 1.00000000 1.00000000
H 36.13426049 38.25293544 19.54991763 8611 373 0 1.00000000 1.00000000 1.00000000
H 36.18412635 39.15315227 21.05450053 8612 373 0 1.00000000 1.00000000 1.00000000
H 34.01969746 38.24187398 21.74552160 8613 373 0 1.00000000 1.00000000 1.00000000
H 33.71316834 37.60399486 20.24282698 8614 373 0 1.00000000 1.00000000 1.00000000
H 32.53151510 39.69173098 20.45904734 8615 373 0 1.00000000 1.00000000 1.00000000
H 33.61654609 39.81793991 19.15032350 8616 373 0 1.00000000 1.00000000 1.00000000
H 34.10990928 40.53398717 20.72204517 8617 373 0 1.00000000 1.00000000 1.00000000
C 9.76480651 34.97378211 34.94178297 8618 374 0 0.56500000 0.56500000 0.56500000
C 8.64922856 34.56484621 35.84850806 8619 374 0 0.56500000 0.56500000 0.56500000
C 7.25531979 34.14978068 35.24172981 8620 374 0 0.56500000 0.56500000 0.56500000
C 6.46825951 35.24048115 34.54016598 8621 374 0 0.56500000 0.56500000 0.56500000
C 5.27716335 34.77890056 33.72024947 8622 374 0 0.56500000 0.56500000 0.56500000
C 5.53699198 33.69602202 32.58392114 8623 374 0 0.56500000 0.56500000 0.56500000
C 4.32104547 33.63653423 31.61787720 8624 374 0 0.56500000 0.56500000 0.56500000
H 10.67498046 35.28454844 35.50238268 8625 374 0 1.00000000 1.00000000 1.00000000
H 9.39810294 35.80512942 34.32817981 8626 374 0 1.00000000 1.00000000 1.00000000
H 10.01124081 34.14691124 34.21054166 8627 374 0 1.00000000 1.00000000 1.00000000
H 8.46998252 35.41618902 36.49958792 8628 374 0 1.00000000 1.00000000 1.00000000
H 8.92395758 33.76005372 36.55268768 8629 374 0 1.00000000 1.00000000 1.00000000
H 6.61249440 33.80133797 36.07922327 8630 374 0 1.00000000 1.00000000 1.00000000
H 7.46414800 33.29908919 34.59698058 8631 374 0 1.00000000 1.00000000 1.00000000
H 7.06938959 35.75398886 33.80991120 8632 374 0 1.00000000 1.00000000 1.00000000
H 6.13584308 36.04694000 35.27323768 8633 374 0 1.00000000 1.00000000 1.00000000
H 4.88951109 35.63871600 33.23489397 8634 374 0 1.00000000 1.00000000 1.00000000
H 4.50510901 34.34882007 34.37321314 8635 374 0 1.00000000 1.00000000 1.00000000
H 5.80070933 32.72048602 32.94485988 8636 374 0 1.00000000 1.00000000 1.00000000
H 6.44641019 34.03414303 31.98498495 8637 374 0 1.00000000 1.00000000 1.00000000
H 3.48768365 32.99670431 32.02854407 8638 374 0 1.00000000 1.00000000 1.00000000
H 4.60845386 33.21009023 30.61182761 8639 374 0 1.00000000 1.00000000 1.00000000
H 3.89566149 34.60395879 31.42259037 8640 374 0 1.00000000 1.00000000 1.00000000
C 28.94465247 8.30652690 -3.56251020 8641 375 0 0.56500000 0.56500000 0.56500000
C 29.35216344 7.05074558 -4.32040747 8642 375 0 0.56500000 0.56500000 0.56500000
C 29.73444011 5.92219630 -3.22807627 8643 375 0 0.56500000 0.56500000 0.56500000
C 30.30925634 4.65742823 -3.82453435 8644 375 0 0.56500000 0.56500000 0.56500000
C 30.42011335 3.45047236 -2.99179484 8645 375 0 0.56500000 0.56500000 0.56500000
C 30.94090573 2.27411040 -3.87409104 8646 375 0 0.56500000 0.56500000 0.56500000
C 30.94478239 0.93622195 -3.09593746 8647 375 0 0.56500000 0.56500000 0.56500000
H 28.54231194 9.03423308 -4.22456689 8648 375 0 1.00000000 1.00000000 1.00000000
H 29.77957948 8.68343806 -2.94864147 8649 375 0 1.00000000 1.00000000 1.00000000
H 28.19775401 8.03069653 -2.85796094 8650 375 0 1.00000000 1.00000000 1.00000000
H 30.19067277 7.12397337 -5.01585671 8651 375 0 1.00000000 1.00000000 1.00000000
H 28.65450473 6.58947625 -4.96856245 8652 375 0 1.00000000 1.00000000 1.00000000
H 28.79915105 5.68591969 -2.72646909 8653 375 0 1.00000000 1.00000000 1.00000000
H 30.38889351 6.32249193 -2.44792883 8654 375 0 1.00000000 1.00000000 1.00000000
H 31.26878006 5.00310098 -4.29646436 8655 375 0 1.00000000 1.00000000 1.00000000
H 29.71518938 4.52714280 -4.77245239 8656 375 0 1.00000000 1.00000000 1.00000000
H 29.43321963 3.13406789 -2.61572876 8657 375 0 1.00000000 1.00000000 1.00000000
H 31.11730039 3.63328819 -2.11506149 8658 375 0 1.00000000 1.00000000 1.00000000
H 31.98041132 2.44173396 -4.28961632 8659 375 0 1.00000000 1.00000000 1.00000000
H 30.31248423 2.20840143 -4.80975324 8660 375 0 1.00000000 1.00000000 1.00000000
H 31.05007866 0.04690097 -3.77961846 8661 375 0 1.00000000 1.00000000 1.00000000
H 30.16235682 0.77494606 -2.34044004 8662 375 0 1.00000000 1.00000000 1.00000000
H 31.86983405 0.92977337 -2.49075079 8663 375 0 1.00000000 1.00000000 1.00000000
C 30.67925295 45.47298876 30.74756723 8664 376 0 0.56500000 0.56500000 0.56500000
C 30.48624776 44.96403193 32.15267989 8665 376 0 0.56500000 0.56500000 0.56500000
C 31.77733178 44.97191217 32.97777977 8666 376 0 0.56500000 0.56500000 0.56500000
C 31.64107184 44.29929569 34.34257133 8667 376 0 0.56500000 0.56500000 0.56500000
C 33.01467022 44.21684282 35.10820282 8668 376 0 0.56500000 0.56500000 0.56500000
C 33.98758517 43.12376739 34.60874908 8669 376 0 0.56500000 0.56500000 0.56500000
C 33.50984962 41.69510326 34.69366011 8670 376 0 0.56500000 0.56500000 0.56500000
H 31.40014811 46.36687930 30.83519278 8671 376 0 1.00000000 1.00000000 1.00000000
H 29.76346425 45.89994215 30.35796351 8672 376 0 1.00000000 1.00000000 1.00000000
H 31.20213585 44.90726902 30.04484498 8673 376 0 1.00000000 1.00000000 1.00000000
H 30.09288204 44.00339045 32.01427979 8674 376 0 1.00000000 1.00000000 1.00000000
H 29.76009067 45.53893299 32.63418478 8675 376 0 1.00000000 1.00000000 1.00000000
H 32.17841412 46.03867114 33.28038777 8676 376 0 1.00000000 1.00000000 1.00000000
H 32.50071686 44.45068442 32.35795614 8677 376 0 1.00000000 1.00000000 1.00000000
H 31.25669524 43.30178098 34.19240114 8678 376 0 1.00000000 1.00000000 1.00000000
H 30.96690259 44.82701333 34.98154642 8679 376 0 1.00000000 1.00000000 1.00000000
H 32.70737409 44.06496632 36.15836283 8680 376 0 1.00000000 1.00000000 1.00000000
H 33.53448707 45.19911934 34.99689764 8681 376 0 1.00000000 1.00000000 1.00000000
H 34.90273557 43.10557458 35.20927339 8682 376 0 1.00000000 1.00000000 1.00000000
H 34.37836331 43.40402041 33.53582817 8683 376 0 1.00000000 1.00000000 1.00000000
H 33.32354124 41.43093753 35.72404065 8684 376 0 1.00000000 1.00000000 1.00000000
H 34.24675507 41.04262945 34.34185860 8685 376 0 1.00000000 1.00000000 1.00000000
H 32.58295293 41.56627081 34.16270189 8686 376 0 1.00000000 1.00000000 1.00000000
