POSCAR
1.00
 15.000000000000      0.000000000000      0.000000000000
  0.000000000000     15.000000000000      0.000000000000
  0.000000000000      0.000000000000     15.000000000000
H    C    O    
8    4    1    
Direct
  0.212765750909     -0.400722714856     -0.409234012302
  0.284517703788     -0.331493008321     -0.476558310346
  0.474883666779     -0.453026625718     -0.417048986380
  0.399337444225     -0.537297429941     -0.376246287037
  0.262152627970     -0.444451094726     -0.582500004298
  0.237725635005     -0.526888597415     -0.496735654505
  0.416791355271     -0.458280797499     -0.561254128916
  0.384797106074     -0.570734438202     -0.528410619797
  0.277553137889     -0.398206170795     -0.445027970875
  0.404747023108     -0.476758359278     -0.418661757238
  0.281570999155     -0.470149005829     -0.515744900697
  0.377088711466     -0.498587836289     -0.513272969574
  0.347989530063     -0.410354416099     -0.384017846609