10447
Lattice="46.4941601051 6.5343280700 -9.9797611593 -6.6803088461 47.5328672996 0.0000000000 9.8826388097 1.3889143074 46.9510848352" Properties=species:S:1:pos:R:3:id:I:1:molecule:I:1:OPA:I:1:color:R:3 Frame=100 DisplayTranslation="-21.35643538917225 0.05360479030822063 3.563933301358805" OPASurface=rotated_x0 DisplayOnly="OPA-following translation; whole-molecule periodic images" pbc="T T T" DisplayRotation="Ry=12deg; Rz=8deg; about origin; cell rotated too"
P 5.42213895 22.57202918 32.28886480 1 1 1 1.00000000 0.50200000 0.00000000
O 6.39603954 21.42473014 33.03150743 2 1 1 1.00000000 0.05100000 0.05100000
O 5.96772097 23.90988144 32.51611550 3 1 1 1.00000000 0.05100000 0.05100000
O 3.98936340 22.14457575 32.81646004 4 1 1 1.00000000 0.05100000 0.05100000
H 7.28945020 21.82087756 32.89907476 5 1 1 1.00000000 0.88000000 0.69000000
H 3.63879425 22.27638997 33.75927823 6 1 1 1.00000000 0.88000000 0.69000000
H 5.33316324 20.96006940 30.55464373 7 1 1 1.00000000 0.88000000 0.69000000
H 6.29124990 22.35339244 30.14906044 8 1 1 1.00000000 0.88000000 0.69000000
H 3.11306667 22.22462427 30.02800018 9 1 1 1.00000000 0.88000000 0.69000000
H 4.41752536 22.35131098 28.66976903 10 1 1 1.00000000 0.88000000 0.69000000
H 5.16813905 24.61882492 29.45433933 11 1 1 1.00000000 0.88000000 0.69000000
H 3.99688836 24.50382119 30.91637018 12 1 1 1.00000000 0.88000000 0.69000000
H 2.86160722 25.90273104 29.46533912 13 1 1 1.00000000 0.88000000 0.69000000
H 2.15325293 24.46640465 29.26145506 14 1 1 1.00000000 0.88000000 0.69000000
H 3.48703478 23.88694439 27.05730973 15 1 1 1.00000000 0.88000000 0.69000000
H 4.22788762 25.41358229 27.18093866 16 1 1 1.00000000 0.88000000 0.69000000
H 1.82251372 26.45423418 27.49002788 17 1 1 1.00000000 0.88000000 0.69000000
H 1.21250763 24.96480449 26.84603328 18 1 1 1.00000000 0.88000000 0.69000000
H 2.95463794 26.86434670 25.41184007 19 1 1 1.00000000 0.88000000 0.69000000
H 1.36394221 26.33310469 24.92781536 20 1 1 1.00000000 0.88000000 0.69000000
H 2.32549880 24.04127965 24.86815973 21 1 1 1.00000000 0.88000000 0.69000000
H 3.91967478 24.64988993 24.92614448 22 1 1 1.00000000 0.88000000 0.69000000
H 3.29884998 24.26198473 22.60837328 23 1 1 1.00000000 1.00000000 1.00000000
H 3.35660415 26.05390923 22.71810555 24 1 1 1.00000000 1.00000000 1.00000000
H 0.92062539 26.18133143 22.98301626 25 1 1 1.00000000 1.00000000 1.00000000
H 0.82317075 24.51444895 22.70879910 26 1 1 1.00000000 1.00000000 1.00000000
H 2.09336358 25.00525705 20.59231827 27 1 1 1.00000000 1.00000000 1.00000000
H 1.50915496 26.64530328 20.74699359 28 1 1 1.00000000 1.00000000 1.00000000
H -0.92571237 25.65937120 20.51527038 29 1 1 1.00000000 1.00000000 1.00000000
H -0.16177534 24.15356051 20.45040658 30 1 1 1.00000000 1.00000000 1.00000000
H 1.12648514 24.75374747 18.42356714 31 1 1 1.00000000 1.00000000 1.00000000
H 0.29394865 26.24717749 18.44677631 32 1 1 1.00000000 1.00000000 1.00000000
H -1.93001668 25.00055052 18.43753071 33 1 1 1.00000000 1.00000000 1.00000000
H -1.01760912 23.60650411 18.21025253 34 1 1 1.00000000 1.00000000 1.00000000
H 0.04666413 24.45489829 16.09466082 35 1 1 1.00000000 1.00000000 1.00000000
H -1.06748918 25.87344854 16.25088223 36 1 1 1.00000000 1.00000000 1.00000000
H -2.94737450 24.54239922 16.44173246 37 1 1 1.00000000 1.00000000 1.00000000
H -2.20255089 23.07994582 16.09970771 38 1 1 1.00000000 1.00000000 1.00000000
H -2.29270792 23.33694870 13.79385967 39 1 1 1.00000000 1.00000000 1.00000000
H -1.52071900 24.96350121 13.89117328 40 1 1 1.00000000 1.00000000 1.00000000
H -4.52813274 24.35998697 14.33149163 41 1 1 1.00000000 1.00000000 1.00000000
H -3.73616248 24.67629399 12.78781904 42 1 1 1.00000000 1.00000000 1.00000000
H -3.81793317 25.94815376 13.87465221 43 1 1 1.00000000 1.00000000 1.00000000
C 5.30397256 22.05646129 30.57988664 44 1 1 0.90000000 0.56000000 0.22000000
C 4.17765657 22.67205592 29.72831879 45 1 1 0.90000000 0.56000000 0.22000000
C 4.16065185 24.23351240 29.79688038 46 1 1 0.90000000 0.56000000 0.22000000
C 3.11032154 24.94139398 28.96952508 47 1 1 0.90000000 0.56000000 0.22000000
C 3.31034355 24.91177680 27.45429802 48 1 1 0.90000000 0.56000000 0.22000000
C 2.08150038 25.63762722 26.82629176 49 1 1 0.90000000 0.56000000 0.22000000
C 2.29123976 26.00092159 25.37900683 50 1 1 0.90000000 0.56000000 0.22000000
C 2.83486445 24.85957606 24.55643439 51 1 1 0.90000000 0.56000000 0.22000000
C 2.78243984 25.15344327 23.00704497 52 1 1 0.56500000 0.56500000 0.56500000
C 1.41524745 25.39285714 22.43791221 53 1 1 0.56500000 0.56500000 0.56500000
C 1.33908180 25.58279573 21.01029052 54 1 1 0.56500000 0.56500000 0.56500000
C 0.04582279 25.19269307 20.24500460 55 1 1 0.56500000 0.56500000 0.56500000
C 0.15284562 25.24653149 18.73085570 56 1 1 0.56500000 0.56500000 0.56500000
C -0.98970853 24.63832271 17.96124577 57 1 1 0.56500000 0.56500000 0.56500000
C -0.94764769 24.82629574 16.47369920 58 1 1 0.56500000 0.56500000 0.56500000
C -2.11537515 24.14308809 15.79933033 59 1 1 0.56500000 0.56500000 0.56500000
C -2.30525413 24.31108421 14.26748090 60 1 1 0.56500000 0.56500000 0.56500000
C -3.64971965 24.85733063 13.85864560 61 1 1 0.56500000 0.56500000 0.56500000
C 32.14445128 32.49622852 32.38277856 62 2 0 0.56500000 0.56500000 0.56500000
C 31.54534587 33.18262559 31.21245979 63 2 0 0.56500000 0.56500000 0.56500000
C 32.27797087 32.91769961 29.88806137 64 2 0 0.56500000 0.56500000 0.56500000
H 31.46684516 32.20721918 33.18453143 65 2 0 1.00000000 1.00000000 1.00000000
H 32.75665332 33.13247196 32.97550723 66 2 0 1.00000000 1.00000000 1.00000000
H 32.80874301 31.64323857 32.27375993 67 2 0 1.00000000 1.00000000 1.00000000
H 31.74991399 32.05874978 29.48256857 68 2 0 1.00000000 1.00000000 1.00000000
H 33.32610744 32.61933222 29.95880630 69 2 0 1.00000000 1.00000000 1.00000000
H 32.07976521 33.74286365 29.09921868 70 2 0 1.00000000 1.00000000 1.00000000
O 30.54458617 33.84427243 31.30557056 71 2 0 1.00000000 0.05100000 0.05100000
C 7.16885617 39.05978831 8.82450639 72 3 0 0.56500000 0.56500000 0.56500000
C 8.38424910 38.62103832 8.08040718 73 3 0 0.56500000 0.56500000 0.56500000
C 8.33378166 38.44793659 6.56864232 74 3 0 0.56500000 0.56500000 0.56500000
H 6.27503895 38.50089475 8.67656404 75 3 0 1.00000000 1.00000000 1.00000000
H 6.92115340 39.95625725 8.24869881 76 3 0 1.00000000 1.00000000 1.00000000
H 7.34113562 39.39341649 9.87309757 77 3 0 1.00000000 1.00000000 1.00000000
H 9.25098145 38.90236741 6.17308246 78 3 0 1.00000000 1.00000000 1.00000000
H 7.50772658 38.99105812 6.08659044 79 3 0 1.00000000 1.00000000 1.00000000
H 8.35860101 37.36301778 6.40327802 80 3 0 1.00000000 1.00000000 1.00000000
O 9.48702142 38.50786703 8.62235604 81 3 0 1.00000000 0.05100000 0.05100000
C 7.13917595 47.50085314 7.24595104 82 4 0 0.56500000 0.56500000 0.56500000
C 8.37291120 46.94366176 7.90422857 83 4 0 0.56500000 0.56500000 0.56500000
C 9.52892413 46.53995565 6.98532520 84 4 0 0.56500000 0.56500000 0.56500000
H 7.46784663 48.23408607 6.48475498 85 4 0 1.00000000 1.00000000 1.00000000
H 6.48654857 47.89729210 8.02623202 86 4 0 1.00000000 1.00000000 1.00000000
H 6.62266240 46.80483483 6.54651174 87 4 0 1.00000000 1.00000000 1.00000000
H 10.48535772 46.86128347 7.38974978 88 4 0 1.00000000 1.00000000 1.00000000
H 9.31942415 46.67341666 5.94286682 89 4 0 1.00000000 1.00000000 1.00000000
H 9.47050575 45.45720718 7.00871813 90 4 0 1.00000000 1.00000000 1.00000000
O 8.41558620 46.80800747 9.12430031 91 4 0 1.00000000 0.05100000 0.05100000
C 8.17638129 44.75563788 1.87442974 92 5 0 0.56500000 0.56500000 0.56500000
C 8.51393746 45.85298960 2.79511380 93 5 0 0.56500000 0.56500000 0.56500000
C 9.52959630 46.81540614 2.23575554 94 5 0 0.56500000 0.56500000 0.56500000
H 8.84769396 43.86989845 2.02914850 95 5 0 1.00000000 1.00000000 1.00000000
H 8.27321326 44.93335333 0.77224414 96 5 0 1.00000000 1.00000000 1.00000000
H 7.17685730 44.39425353 2.02202999 97 5 0 1.00000000 1.00000000 1.00000000
H 9.95541965 47.48065513 3.00192560 98 5 0 1.00000000 1.00000000 1.00000000
H 8.93287652 47.34764085 1.50612193 99 5 0 1.00000000 1.00000000 1.00000000
H 10.30932270 46.32977037 1.63763311 100 5 0 1.00000000 1.00000000 1.00000000
O 8.03614450 45.90033165 3.92382736 101 5 0 1.00000000 0.05100000 0.05100000
C 6.79052112 39.21350286 -1.73009496 102 6 0 0.56500000 0.56500000 0.56500000
C 5.88859709 40.37028072 -2.21109636 103 6 0 0.56500000 0.56500000 0.56500000
C 6.36337968 41.72438535 -1.78718235 104 6 0 0.56500000 0.56500000 0.56500000
H 6.73155734 39.25071389 -0.62861375 105 6 0 1.00000000 1.00000000 1.00000000
H 7.78130430 39.47517663 -2.00339894 106 6 0 1.00000000 1.00000000 1.00000000
H 6.47965984 38.16410191 -1.99666142 107 6 0 1.00000000 1.00000000 1.00000000
H 7.42547938 41.92872601 -2.04174335 108 6 0 1.00000000 1.00000000 1.00000000
H 6.34257772 41.82257634 -0.66331925 109 6 0 1.00000000 1.00000000 1.00000000
H 5.70510178 42.44070339 -2.27964670 110 6 0 1.00000000 1.00000000 1.00000000
O 4.81802509 40.12356440 -2.74786160 111 6 0 1.00000000 0.05100000 0.05100000
C 3.48601994 45.75110972 1.25511983 112 7 0 0.56500000 0.56500000 0.56500000
C 4.30248458 46.92942413 1.88131598 113 7 0 0.56500000 0.56500000 0.56500000
C 4.51248856 46.74354907 3.36038714 114 7 0 0.56500000 0.56500000 0.56500000
H 2.48513021 45.94275141 0.88818728 115 7 0 1.00000000 1.00000000 1.00000000
H 3.30430158 44.98893615 2.00614932 116 7 0 1.00000000 1.00000000 1.00000000
H 3.99252265 45.25494140 0.44766376 117 7 0 1.00000000 1.00000000 1.00000000
H 4.76626124 47.63857626 3.95784634 118 7 0 1.00000000 1.00000000 1.00000000
H 5.35689948 46.10218292 3.55695151 119 7 0 1.00000000 1.00000000 1.00000000
H 3.60200860 46.20796906 3.71333247 120 7 0 1.00000000 1.00000000 1.00000000
O 4.58123770 47.87836223 1.19501305 121 7 0 1.00000000 0.05100000 0.05100000
C 9.53501562 27.79039555 31.82631922 122 8 0 0.56500000 0.56500000 0.56500000
C 10.46818421 28.93226084 32.00746064 123 8 0 0.56500000 0.56500000 0.56500000
C 10.19917302 30.18239925 31.34063702 124 8 0 0.56500000 0.56500000 0.56500000
H 9.66104164 27.03590483 32.61295185 125 8 0 1.00000000 1.00000000 1.00000000
H 9.67528164 27.29002072 30.77490643 126 8 0 1.00000000 1.00000000 1.00000000
H 8.47330010 28.14570671 31.97543816 127 8 0 1.00000000 1.00000000 1.00000000
H 9.33495349 30.72431050 31.77268924 128 8 0 1.00000000 1.00000000 1.00000000
H 9.99641210 30.07672723 30.30233612 129 8 0 1.00000000 1.00000000 1.00000000
H 11.11330510 30.86110887 31.43855266 130 8 0 1.00000000 1.00000000 1.00000000
O 11.46549092 28.80998754 32.74726019 131 8 0 1.00000000 0.05100000 0.05100000
C 6.67406598 43.79965594 7.05443027 132 9 0 0.56500000 0.56500000 0.56500000
C 7.39506333 42.70241768 6.31697432 133 9 0 0.56500000 0.56500000 0.56500000
C 8.89551123 42.99613501 6.21080676 134 9 0 0.56500000 0.56500000 0.56500000
H 6.45071504 44.55447402 6.16455705 135 9 0 1.00000000 1.00000000 1.00000000
H 7.16152774 44.42125776 7.68603163 136 9 0 1.00000000 1.00000000 1.00000000
H 5.70151506 43.46300278 7.38667697 137 9 0 1.00000000 1.00000000 1.00000000
H 9.37280380 43.16447133 7.24765260 138 9 0 1.00000000 1.00000000 1.00000000
H 9.01367279 43.97301949 5.69359731 139 9 0 1.00000000 1.00000000 1.00000000
H 9.37692480 42.12061802 5.73893800 140 9 0 1.00000000 1.00000000 1.00000000
O 6.79872367 41.72669663 5.86274829 141 9 0 1.00000000 0.05100000 0.05100000
C 40.88741311 47.20587519 28.76242030 142 10 0 0.56500000 0.56500000 0.56500000
C 40.97917829 47.88578359 27.41154080 143 10 0 0.56500000 0.56500000 0.56500000
C 41.18159195 49.36410865 27.37805513 144 10 0 0.56500000 0.56500000 0.56500000
H 40.23836514 47.49013400 29.57839411 145 10 0 1.00000000 1.00000000 1.00000000
H 41.89063500 47.22581783 29.18501029 146 10 0 1.00000000 1.00000000 1.00000000
H 40.68045928 46.17207303 28.43931603 147 10 0 1.00000000 1.00000000 1.00000000
H 40.27906648 49.95330878 27.50579709 148 10 0 1.00000000 1.00000000 1.00000000
H 41.80798825 49.72684681 26.50875997 149 10 0 1.00000000 1.00000000 1.00000000
H 41.66069561 49.67979648 28.29506763 150 10 0 1.00000000 1.00000000 1.00000000
O 41.06501835 47.22801646 26.40414658 151 10 0 1.00000000 0.05100000 0.05100000
C 15.67672324 43.92556776 28.93479343 152 11 0 0.56500000 0.56500000 0.56500000
C 16.34884781 42.58774157 28.80982748 153 11 0 0.56500000 0.56500000 0.56500000
C 15.59794360 41.43676974 29.53461965 154 11 0 0.56500000 0.56500000 0.56500000
H 15.41197331 44.06393098 29.96645051 155 11 0 1.00000000 1.00000000 1.00000000
H 14.65861128 43.80235980 28.47446581 156 11 0 1.00000000 1.00000000 1.00000000
H 16.23945015 44.69628429 28.41505368 157 11 0 1.00000000 1.00000000 1.00000000
H 15.34813474 41.74154184 30.57872939 158 11 0 1.00000000 1.00000000 1.00000000
H 16.28834112 40.56014221 29.50739998 159 11 0 1.00000000 1.00000000 1.00000000
H 14.68968431 41.16142912 29.04932214 160 11 0 1.00000000 1.00000000 1.00000000
O 17.40846604 42.47029833 28.26954472 161 11 0 1.00000000 0.05100000 0.05100000
C 21.85523457 50.72549617 28.54161117 162 12 0 0.56500000 0.56500000 0.56500000
C 23.36190191 50.80719827 28.64962916 163 12 0 0.56500000 0.56500000 0.56500000
C 24.18202141 51.14313483 27.40086555 164 12 0 0.56500000 0.56500000 0.56500000
H 21.42769930 50.68173236 29.56373792 165 12 0 1.00000000 1.00000000 1.00000000
H 21.51796350 49.84766325 27.93538962 166 12 0 1.00000000 1.00000000 1.00000000
H 21.52832511 51.64176126 27.97632292 167 12 0 1.00000000 1.00000000 1.00000000
H 24.55734272 52.16365159 27.70028708 168 12 0 1.00000000 1.00000000 1.00000000
H 23.57800232 51.11953798 26.47562212 169 12 0 1.00000000 1.00000000 1.00000000
H 25.06772052 50.46001373 27.38219094 170 12 0 1.00000000 1.00000000 1.00000000
O 23.92549035 50.57875440 29.72119253 171 12 0 1.00000000 0.05100000 0.05100000
C 27.51485895 45.81262399 5.57557937 172 13 0 0.56500000 0.56500000 0.56500000
C 28.08240121 44.44621770 5.30332697 173 13 0 0.56500000 0.56500000 0.56500000
C 29.29920096 44.41191270 4.44171436 174 13 0 0.56500000 0.56500000 0.56500000
H 27.52934850 46.42040526 4.67507623 175 13 0 1.00000000 1.00000000 1.00000000
H 28.18377773 46.23559588 6.29885329 176 13 0 1.00000000 1.00000000 1.00000000
H 26.48956927 45.88282242 5.92546687 177 13 0 1.00000000 1.00000000 1.00000000
H 30.10050170 45.10259922 4.80857314 178 13 0 1.00000000 1.00000000 1.00000000
H 29.11698979 44.79682256 3.41284532 179 13 0 1.00000000 1.00000000 1.00000000
H 29.73753756 43.40564879 4.32112522 180 13 0 1.00000000 1.00000000 1.00000000
O 27.64636707 43.42644808 5.77272001 181 13 0 1.00000000 0.05100000 0.05100000
C 19.79578324 28.58483975 8.69769856 182 14 0 0.56500000 0.56500000 0.56500000
C 20.50885136 29.50279554 7.66162583 183 14 0 0.56500000 0.56500000 0.56500000
C 21.58430413 30.37691303 8.11808293 184 14 0 0.56500000 0.56500000 0.56500000
H 19.07689804 27.95576181 8.11796738 185 14 0 1.00000000 1.00000000 1.00000000
H 19.24695301 29.27496733 9.39591390 186 14 0 1.00000000 1.00000000 1.00000000
H 20.51075287 27.93783166 9.25447943 187 14 0 1.00000000 1.00000000 1.00000000
H 22.37201219 30.46893326 7.39626211 188 14 0 1.00000000 1.00000000 1.00000000
H 22.00546300 29.99646097 9.05116544 189 14 0 1.00000000 1.00000000 1.00000000
H 21.20567241 31.43293532 8.34532499 190 14 0 1.00000000 1.00000000 1.00000000
O 20.03322836 29.56262634 6.50366532 191 14 0 1.00000000 0.05100000 0.05100000
C 15.90516767 33.60719834 10.31898035 192 15 0 0.56500000 0.56500000 0.56500000
C 16.95974863 32.50013468 10.52789403 193 15 0 0.56500000 0.56500000 0.56500000
C 17.08740261 31.38972982 9.47590899 194 15 0 0.56500000 0.56500000 0.56500000
H 15.32496244 33.59897716 9.44339020 195 15 0 1.00000000 1.00000000 1.00000000
H 16.37723556 34.58993841 10.35995323 196 15 0 1.00000000 1.00000000 1.00000000
H 15.29595824 33.68392718 11.21315037 197 15 0 1.00000000 1.00000000 1.00000000
H 17.50694308 30.53416981 9.99870871 198 15 0 1.00000000 1.00000000 1.00000000
H 17.79784620 31.74322141 8.71844467 199 15 0 1.00000000 1.00000000 1.00000000
H 16.17701642 31.14126160 9.00739577 200 15 0 1.00000000 1.00000000 1.00000000
O 17.74796094 32.60504664 11.44672123 201 15 0 1.00000000 0.05100000 0.05100000
C 15.09306954 37.19797791 27.62824500 202 16 0 0.56500000 0.56500000 0.56500000
C 15.67363558 36.54919135 26.35157554 203 16 0 0.56500000 0.56500000 0.56500000
C 17.11550318 36.91389673 25.97740765 204 16 0 0.56500000 0.56500000 0.56500000
H 15.77514805 37.29549367 28.47129749 205 16 0 1.00000000 1.00000000 1.00000000
H 14.15827910 36.62334527 27.94998632 206 16 0 1.00000000 1.00000000 1.00000000
H 14.70099827 38.20387543 27.44001326 207 16 0 1.00000000 1.00000000 1.00000000
H 17.19458124 37.85424881 25.44118942 208 16 0 1.00000000 1.00000000 1.00000000
H 17.37634460 36.10372693 25.23655910 209 16 0 1.00000000 1.00000000 1.00000000
H 17.66077175 36.92445936 26.97372759 210 16 0 1.00000000 1.00000000 1.00000000
O 14.97721185 35.80169895 25.71878073 211 16 0 1.00000000 0.05100000 0.05100000
C 9.89759464 32.08990964 38.78445179 212 17 0 0.56500000 0.56500000 0.56500000
C 9.38373773 31.02183658 39.65259446 213 17 0 0.56500000 0.56500000 0.56500000
C 10.24352208 30.26988234 40.58089001 214 17 0 0.56500000 0.56500000 0.56500000
H 10.98636734 32.00765292 38.45900931 215 17 0 1.00000000 1.00000000 1.00000000
H 9.83304922 33.05283732 39.21891199 216 17 0 1.00000000 1.00000000 1.00000000
H 9.19266004 32.04741667 37.95970439 217 17 0 1.00000000 1.00000000 1.00000000
H 10.71983684 29.46320657 39.96108266 218 17 0 1.00000000 1.00000000 1.00000000
H 9.59048545 29.73250754 41.26395755 219 17 0 1.00000000 1.00000000 1.00000000
H 11.10664604 30.80575507 40.97108946 220 17 0 1.00000000 1.00000000 1.00000000
O 8.16630348 30.77727284 39.55170199 221 17 0 1.00000000 0.05100000 0.05100000
C 25.19510147 44.21489917 15.83207925 222 18 0 0.56500000 0.56500000 0.56500000
C 24.58002724 45.27436570 14.92746848 223 18 0 0.56500000 0.56500000 0.56500000
C 25.38486568 46.30998867 14.20608486 224 18 0 0.56500000 0.56500000 0.56500000
H 26.08256760 43.74921272 15.44043615 225 18 0 1.00000000 1.00000000 1.00000000
H 24.48553693 43.45157823 16.07660147 226 18 0 1.00000000 1.00000000 1.00000000
H 25.48429800 44.71142875 16.72699271 227 18 0 1.00000000 1.00000000 1.00000000
H 24.77996633 46.78344825 13.45184266 228 18 0 1.00000000 1.00000000 1.00000000
H 26.25973763 45.83923880 13.71621178 229 18 0 1.00000000 1.00000000 1.00000000
H 25.79946354 46.99392903 14.95331904 230 18 0 1.00000000 1.00000000 1.00000000
O 23.36325240 45.16932585 14.77404086 231 18 0 1.00000000 0.05100000 0.05100000
C 22.03919833 48.37113166 30.84315670 232 19 0 0.56500000 0.56500000 0.56500000
C 22.18358596 47.65191536 32.16473574 233 19 0 0.56500000 0.56500000 0.56500000
C 23.33599284 48.04591579 32.95657669 234 19 0 0.56500000 0.56500000 0.56500000
H 20.97378588 48.43777577 30.54677036 235 19 0 1.00000000 1.00000000 1.00000000
H 22.59486232 47.63018819 30.24258683 236 19 0 1.00000000 1.00000000 1.00000000
H 22.51048569 49.33239122 30.74199206 237 19 0 1.00000000 1.00000000 1.00000000
H 24.21910213 48.19385836 32.31168641 238 19 0 1.00000000 1.00000000 1.00000000
H 23.61073478 47.15816202 33.55038019 239 19 0 1.00000000 1.00000000 1.00000000
H 23.28201694 48.86130684 33.60334486 240 19 0 1.00000000 1.00000000 1.00000000
O 21.46218551 46.72864594 32.46591681 241 19 0 1.00000000 0.05100000 0.05100000
C 16.65862863 39.99604886 7.82620980 242 20 0 0.56500000 0.56500000 0.56500000
C 17.96788659 40.76070414 7.87237095 243 20 0 0.56500000 0.56500000 0.56500000
C 18.77359696 40.91818831 6.61660372 244 20 0 0.56500000 0.56500000 0.56500000
H 16.02411094 40.47617431 7.10142134 245 20 0 1.00000000 1.00000000 1.00000000
H 16.17451468 39.96511487 8.80979828 246 20 0 1.00000000 1.00000000 1.00000000
H 16.92263107 38.97537738 7.41435279 247 20 0 1.00000000 1.00000000 1.00000000
H 18.24244276 40.84891382 5.65684742 248 20 0 1.00000000 1.00000000 1.00000000
H 19.53455853 40.11249542 6.62223899 249 20 0 1.00000000 1.00000000 1.00000000
H 19.29694603 41.84300806 6.74851227 250 20 0 1.00000000 1.00000000 1.00000000
O 18.36909764 41.24389210 8.91796823 251 20 0 1.00000000 0.05100000 0.05100000
C 34.64145818 28.29464832 -0.61634461 252 21 0 0.56500000 0.56500000 0.56500000
C 34.02859387 27.41024814 -1.72437692 253 21 0 0.56500000 0.56500000 0.56500000
C 34.99386866 26.41688885 -2.36776276 254 21 0 0.56500000 0.56500000 0.56500000
H 35.22030123 27.76954762 0.15298237 255 21 0 1.00000000 1.00000000 1.00000000
H 33.99279565 29.03111921 -0.19204970 256 21 0 1.00000000 1.00000000 1.00000000
H 35.44864898 28.86425015 -1.05435620 257 21 0 1.00000000 1.00000000 1.00000000
H 35.51838359 25.79201924 -1.64184550 258 21 0 1.00000000 1.00000000 1.00000000
H 35.77077565 27.01024132 -2.83907908 259 21 0 1.00000000 1.00000000 1.00000000
H 34.42880155 25.80420942 -3.02334577 260 21 0 1.00000000 1.00000000 1.00000000
O 32.84658355 27.45169796 -2.03577798 261 21 0 1.00000000 0.05100000 0.05100000
C 27.04418248 17.68539162 29.98222206 262 22 0 0.56500000 0.56500000 0.56500000
C 26.73460008 18.79790076 29.00878339 263 22 0 0.56500000 0.56500000 0.56500000
C 27.63056405 18.77125052 27.78590087 264 22 0 0.56500000 0.56500000 0.56500000
H 26.22902834 16.98863792 30.03900718 265 22 0 1.00000000 1.00000000 1.00000000
H 27.33454835 18.14777524 31.02716396 266 22 0 1.00000000 1.00000000 1.00000000
H 27.92021399 17.14571608 29.63724822 267 22 0 1.00000000 1.00000000 1.00000000
H 28.37318236 17.95459262 27.71535813 268 22 0 1.00000000 1.00000000 1.00000000
H 28.10069500 19.71941626 27.79265861 269 22 0 1.00000000 1.00000000 1.00000000
H 27.03196659 18.61491530 26.89004942 270 22 0 1.00000000 1.00000000 1.00000000
O 25.93624798 19.66805039 29.29891226 271 22 0 1.00000000 0.05100000 0.05100000
C 48.39686434 30.91289813 24.30251686 272 23 0 0.56500000 0.56500000 0.56500000
C 49.37187529 30.48696526 25.31627336 273 23 0 0.56500000 0.56500000 0.56500000
C 49.67831896 31.40393953 26.39455879 274 23 0 0.56500000 0.56500000 0.56500000
H 47.98625200 31.89934282 24.62532876 275 23 0 1.00000000 1.00000000 1.00000000
H 47.55038839 30.27900637 24.12208740 276 23 0 1.00000000 1.00000000 1.00000000
H 49.06261534 31.21174836 23.43395774 277 23 0 1.00000000 1.00000000 1.00000000
H 50.46693837 31.02667259 26.98905760 278 23 0 1.00000000 1.00000000 1.00000000
H 48.81561928 31.51966807 27.01963361 279 23 0 1.00000000 1.00000000 1.00000000
H 49.84197197 32.42961650 25.90007186 280 23 0 1.00000000 1.00000000 1.00000000
O 49.95163902 29.36968984 25.27711685 281 23 0 1.00000000 0.05100000 0.05100000
C 34.15720246 24.16646199 8.65316820 282 24 0 0.56500000 0.56500000 0.56500000
C 35.66262177 24.25564847 8.79458548 283 24 0 0.56500000 0.56500000 0.56500000
C 36.20120969 24.48448108 10.20065940 284 24 0 0.56500000 0.56500000 0.56500000
H 33.88115963 23.30740866 9.25659300 285 24 0 1.00000000 1.00000000 1.00000000
H 33.87660324 24.05860030 7.61245049 286 24 0 1.00000000 1.00000000 1.00000000
H 33.67883034 25.04433986 9.16114470 287 24 0 1.00000000 1.00000000 1.00000000
H 37.31314875 24.56524048 10.13502033 288 24 0 1.00000000 1.00000000 1.00000000
H 36.07985433 23.58523741 10.80143045 289 24 0 1.00000000 1.00000000 1.00000000
H 35.90736089 25.33416050 10.76766422 290 24 0 1.00000000 1.00000000 1.00000000
O 36.43744145 24.25139558 7.90518681 291 24 0 1.00000000 0.05100000 0.05100000
C 12.60618183 11.07591004 15.79789683 292 25 0 0.56500000 0.56500000 0.56500000
C 12.45733304 12.57160034 15.61220311 293 25 0 0.56500000 0.56500000 0.56500000
C 13.28829437 13.32087410 16.54360246 294 25 0 0.56500000 0.56500000 0.56500000
H 12.07738728 10.87918821 16.75971071 295 25 0 1.00000000 1.00000000 1.00000000
H 13.58519614 10.84873926 15.92169676 296 25 0 1.00000000 1.00000000 1.00000000
H 12.05976951 10.41976639 15.05235409 297 25 0 1.00000000 1.00000000 1.00000000
H 13.49924697 12.72554436 17.47395879 298 25 0 1.00000000 1.00000000 1.00000000
H 12.87885232 14.33842348 16.66425317 299 25 0 1.00000000 1.00000000 1.00000000
H 14.26497528 13.39501848 16.06546036 300 25 0 1.00000000 1.00000000 1.00000000
O 11.68844423 13.11956490 14.83124743 301 25 0 1.00000000 0.05100000 0.05100000
C 44.78512956 48.89959450 21.45949786 302 26 0 0.56500000 0.56500000 0.56500000
C 44.55213521 50.24912650 22.06574376 303 26 0 0.56500000 0.56500000 0.56500000
C 44.89048239 51.51667754 21.32070886 304 26 0 0.56500000 0.56500000 0.56500000
H 45.92135964 48.73155920 21.37515258 305 26 0 1.00000000 1.00000000 1.00000000
H 44.40720561 48.89215819 20.41417371 306 26 0 1.00000000 1.00000000 1.00000000
H 44.22974756 48.17660915 21.99836433 307 26 0 1.00000000 1.00000000 1.00000000
H 45.57803299 52.05876984 21.99766947 308 26 0 1.00000000 1.00000000 1.00000000
H 44.05120885 52.14599614 21.01731972 309 26 0 1.00000000 1.00000000 1.00000000
H 45.35358585 51.19515778 20.36721766 310 26 0 1.00000000 1.00000000 1.00000000
O 44.10553144 50.38038568 23.18820342 311 26 0 1.00000000 0.05100000 0.05100000
C 4.94655258 40.96069893 3.02675894 312 27 0 0.56500000 0.56500000 0.56500000
C 4.95277529 41.56321066 1.66119526 313 27 0 0.56500000 0.56500000 0.56500000
C 3.61734502 41.52921494 0.92196148 314 27 0 0.56500000 0.56500000 0.56500000
H 4.34544090 40.03835873 3.11934856 315 27 0 1.00000000 1.00000000 1.00000000
H 4.28585704 41.57952351 3.63288656 316 27 0 1.00000000 1.00000000 1.00000000
H 5.94182211 40.74412515 3.53379775 317 27 0 1.00000000 1.00000000 1.00000000
H 3.27407422 42.55950350 0.68451298 318 27 0 1.00000000 1.00000000 1.00000000
H 2.88301827 41.06403787 1.56520561 319 27 0 1.00000000 1.00000000 1.00000000
H 3.64691967 41.11583317 -0.05768599 320 27 0 1.00000000 1.00000000 1.00000000
O 5.96737671 42.11586942 1.35213092 321 27 0 1.00000000 0.05100000 0.05100000
C 25.03938008 29.25239182 -0.36766054 322 28 0 0.56500000 0.56500000 0.56500000
C 24.16546861 29.54772276 -1.53527544 323 28 0 0.56500000 0.56500000 0.56500000
C 22.99468787 28.58381550 -1.90041450 324 28 0 0.56500000 0.56500000 0.56500000
H 24.35805417 28.81141329 0.40148770 325 28 0 1.00000000 1.00000000 1.00000000
H 25.52866649 30.15567716 -0.09266888 326 28 0 1.00000000 1.00000000 1.00000000
H 25.85377298 28.53467539 -0.68417435 327 28 0 1.00000000 1.00000000 1.00000000
H 22.48782055 29.05105675 -2.71340828 328 28 0 1.00000000 1.00000000 1.00000000
H 22.25235276 28.42064283 -1.04024076 329 28 0 1.00000000 1.00000000 1.00000000
H 23.26366827 27.60320502 -2.13403027 330 28 0 1.00000000 1.00000000 1.00000000
O 24.35028504 30.62117664 -2.12946481 331 28 0 1.00000000 0.05100000 0.05100000
C 40.79503005 47.07390733 -3.63221574 332 29 0 0.56500000 0.56500000 0.56500000
C 39.90002803 46.01540155 -2.98381165 333 29 0 0.56500000 0.56500000 0.56500000
C 38.35307797 46.33754357 -2.70727805 334 29 0 0.56500000 0.56500000 0.56500000
H 41.59097448 47.31664990 -2.85063365 335 29 0 1.00000000 1.00000000 1.00000000
H 40.23043489 48.09497944 -3.65820105 336 29 0 1.00000000 1.00000000 1.00000000
H 41.17989878 46.70468360 -4.57346770 337 29 0 1.00000000 1.00000000 1.00000000
H 37.85195909 46.28031667 -3.63273680 338 29 0 1.00000000 1.00000000 1.00000000
H 38.24089510 47.31320643 -2.24427842 339 29 0 1.00000000 1.00000000 1.00000000
H 37.83682634 45.66772547 -1.95520496 340 29 0 1.00000000 1.00000000 1.00000000
O 40.39761395 44.91497724 -2.84821613 341 29 0 1.00000000 0.05100000 0.05100000
C 25.86472749 23.31998585 -5.95583569 342 30 0 0.56500000 0.56500000 0.56500000
C 27.18557911 23.22240983 -6.64338193 343 30 0 0.56500000 0.56500000 0.56500000
C 28.39103308 22.77353748 -5.77216317 344 30 0 0.56500000 0.56500000 0.56500000
H 25.53083834 22.37419896 -5.52834654 345 30 0 1.00000000 1.00000000 1.00000000
H 25.04064544 23.70784902 -6.61470085 346 30 0 1.00000000 1.00000000 1.00000000
H 25.95179149 24.02314189 -5.11153591 347 30 0 1.00000000 1.00000000 1.00000000
H 29.31751904 23.11267543 -6.23696243 348 30 0 1.00000000 1.00000000 1.00000000
H 28.49781078 21.67402714 -5.71918601 349 30 0 1.00000000 1.00000000 1.00000000
H 28.41548268 23.20412653 -4.78032712 350 30 0 1.00000000 1.00000000 1.00000000
O 27.31052171 23.47040936 -7.83429362 351 30 0 1.00000000 0.05100000 0.05100000
C 45.96070730 7.28550022 4.37938392 352 31 0 0.56500000 0.56500000 0.56500000
C 47.22767482 6.51858305 4.47118978 353 31 0 0.56500000 0.56500000 0.56500000
C 48.43144008 7.20674576 3.85963204 354 31 0 0.56500000 0.56500000 0.56500000
H 45.80444141 7.64705316 3.29979024 355 31 0 1.00000000 1.00000000 1.00000000
H 46.13164880 8.09808034 4.99212796 356 31 0 1.00000000 1.00000000 1.00000000
H 45.13386653 6.62371568 4.65477240 357 31 0 1.00000000 1.00000000 1.00000000
H 48.93333076 7.77051275 4.59229691 358 31 0 1.00000000 1.00000000 1.00000000
H 48.07041900 7.78211168 3.00689578 359 31 0 1.00000000 1.00000000 1.00000000
H 49.18266260 6.48112191 3.55393917 360 31 0 1.00000000 1.00000000 1.00000000
O 47.30264690 5.39222977 4.98977899 361 31 0 1.00000000 0.05100000 0.05100000
C 32.98519819 44.75759467 20.98228150 362 32 0 0.56500000 0.56500000 0.56500000
C 31.80859135 45.63865154 21.12596088 363 32 0 0.56500000 0.56500000 0.56500000
C 31.02846971 45.53020890 22.37642613 364 32 0 0.56500000 0.56500000 0.56500000
H 33.61611292 45.13923969 20.16477058 365 32 0 1.00000000 1.00000000 1.00000000
H 32.63693351 43.84435627 20.59787348 366 32 0 1.00000000 1.00000000 1.00000000
H 33.58295770 44.57885947 21.89850482 367 32 0 1.00000000 1.00000000 1.00000000
H 31.63960295 45.75847297 23.24609044 368 32 0 1.00000000 1.00000000 1.00000000
H 30.69291358 44.52094885 22.59047857 369 32 0 1.00000000 1.00000000 1.00000000
H 30.14081356 46.07126078 22.27677844 370 32 0 1.00000000 1.00000000 1.00000000
O 31.52384592 46.46459164 20.25802411 371 32 0 1.00000000 0.05100000 0.05100000
C 12.98355319 34.57064587 34.46619074 372 33 0 0.56500000 0.56500000 0.56500000
C 14.07843775 33.57097593 34.86127087 373 33 0 0.56500000 0.56500000 0.56500000
C 14.17722888 32.34342999 34.03816940 374 33 0 0.56500000 0.56500000 0.56500000
H 13.35519295 35.65577780 34.69202461 375 33 0 1.00000000 1.00000000 1.00000000
H 12.11980797 34.50901056 35.11514706 376 33 0 1.00000000 1.00000000 1.00000000
H 12.68072790 34.63713871 33.39618077 377 33 0 1.00000000 1.00000000 1.00000000
H 15.14054790 31.94459892 34.29691573 378 33 0 1.00000000 1.00000000 1.00000000
H 14.00270946 32.50629439 32.99219267 379 33 0 1.00000000 1.00000000 1.00000000
H 13.35506147 31.71861752 34.39566710 380 33 0 1.00000000 1.00000000 1.00000000
O 14.66479450 33.60542937 35.92942986 381 33 0 1.00000000 0.05100000 0.05100000
C 41.68337432 48.85670996 33.93813367 382 34 0 0.56500000 0.56500000 0.56500000
C 40.37167297 48.35603564 33.35613948 383 34 0 0.56500000 0.56500000 0.56500000
C 40.53510675 47.39272256 32.20239701 384 34 0 0.56500000 0.56500000 0.56500000
H 41.64930286 49.82392903 34.48787905 385 34 0 1.00000000 1.00000000 1.00000000
H 42.58235356 48.83580528 33.40730508 386 34 0 1.00000000 1.00000000 1.00000000
H 41.84332856 48.18065354 34.83707691 387 34 0 1.00000000 1.00000000 1.00000000
H 39.62675496 46.86512783 31.91334976 388 34 0 1.00000000 1.00000000 1.00000000
H 41.33584212 46.68579145 32.46085389 389 34 0 1.00000000 1.00000000 1.00000000
H 40.85730708 47.90718254 31.26485962 390 34 0 1.00000000 1.00000000 1.00000000
O 39.30104492 48.55468035 33.87267196 391 34 0 1.00000000 0.05100000 0.05100000
C 20.82234317 34.56552091 12.35225783 392 35 0 0.56500000 0.56500000 0.56500000
C 21.11921836 33.35768413 11.49793729 393 35 0 0.56500000 0.56500000 0.56500000
C 20.59041773 32.02299602 12.14923418 394 35 0 0.56500000 0.56500000 0.56500000
H 19.78383422 34.78210728 12.34801048 395 35 0 1.00000000 1.00000000 1.00000000
H 21.40600801 35.33465753 11.88345014 396 35 0 1.00000000 1.00000000 1.00000000
H 21.11611719 34.41210988 13.33457104 397 35 0 1.00000000 1.00000000 1.00000000
H 19.52712377 31.97080541 12.27624738 398 35 0 1.00000000 1.00000000 1.00000000
H 21.10732051 31.91183146 13.07753605 399 35 0 1.00000000 1.00000000 1.00000000
H 20.87234515 31.20510802 11.43692975 400 35 0 1.00000000 1.00000000 1.00000000
O 21.62029088 33.33983514 10.38694846 401 35 0 1.00000000 0.05100000 0.05100000
C 16.10107709 34.93958513 32.02107730 402 36 0 0.56500000 0.56500000 0.56500000
C 17.34394604 34.42136141 32.43605304 403 36 0 0.56500000 0.56500000 0.56500000
C 18.44170741 34.46141282 31.36532197 404 36 0 0.56500000 0.56500000 0.56500000
H 15.34601672 34.20385938 32.19547093 405 36 0 1.00000000 1.00000000 1.00000000
H 16.05632664 35.42841044 31.02757953 406 36 0 1.00000000 1.00000000 1.00000000
H 15.76892976 35.76076430 32.64459813 407 36 0 1.00000000 1.00000000 1.00000000
H 18.27437755 35.34463085 30.77391707 408 36 0 1.00000000 1.00000000 1.00000000
H 18.23162764 33.57067777 30.75228575 409 36 0 1.00000000 1.00000000 1.00000000
H 19.48351444 34.39383461 31.69747601 410 36 0 1.00000000 1.00000000 1.00000000
O 17.42358806 33.91041519 33.55805484 411 36 0 1.00000000 0.05100000 0.05100000
C 45.19738658 11.21652813 29.30922343 412 37 0 0.56500000 0.56500000 0.56500000
C 46.55238941 11.83587236 29.50607265 413 37 0 0.56500000 0.56500000 0.56500000
C 46.82536269 13.09420746 30.31568874 414 37 0 0.56500000 0.56500000 0.56500000
H 44.53530672 11.93392718 28.78389202 415 37 0 1.00000000 1.00000000 1.00000000
H 44.78554912 10.83668636 30.23138844 416 37 0 1.00000000 1.00000000 1.00000000
H 45.44755316 10.39218755 28.67561983 417 37 0 1.00000000 1.00000000 1.00000000
H 46.37797599 13.96971567 29.76040392 418 37 0 1.00000000 1.00000000 1.00000000
H 47.84952121 13.23588350 30.46733933 419 37 0 1.00000000 1.00000000 1.00000000
H 46.31202356 13.06726078 31.29208406 420 37 0 1.00000000 1.00000000 1.00000000
O 47.54677057 11.24183490 29.17969763 421 37 0 1.00000000 0.05100000 0.05100000
C 2.15995834 30.44839793 22.44224656 422 38 0 0.56500000 0.56500000 0.56500000
C 0.77354343 30.45264582 21.99223664 423 38 0 0.56500000 0.56500000 0.56500000
C 0.40360047 31.44467983 20.97314854 424 38 0 0.56500000 0.56500000 0.56500000
H 2.66048574 31.21738801 21.92979905 425 38 0 1.00000000 1.00000000 1.00000000
H 2.64105393 29.50164257 22.12376706 426 38 0 1.00000000 1.00000000 1.00000000
H 2.04842048 30.56403302 23.54388524 427 38 0 1.00000000 1.00000000 1.00000000
H -0.59595541 31.34791818 20.48952046 428 38 0 1.00000000 1.00000000 1.00000000
H 1.15611022 31.40365291 20.14759650 429 38 0 1.00000000 1.00000000 1.00000000
H 0.52211349 32.41682517 21.27341450 430 38 0 1.00000000 1.00000000 1.00000000
O -0.00720843 29.59891205 22.46242204 431 38 0 1.00000000 0.05100000 0.05100000
C 45.76553948 35.30444255 27.21135690 432 39 0 0.56500000 0.56500000 0.56500000
C 44.56554648 34.49957852 27.43780849 433 39 0 0.56500000 0.56500000 0.56500000
C 43.38567299 34.85375481 26.50614375 434 39 0 0.56500000 0.56500000 0.56500000
H 46.50972431 35.00364313 27.89759413 435 39 0 1.00000000 1.00000000 1.00000000
H 45.51354852 36.36976882 27.45507072 436 39 0 1.00000000 1.00000000 1.00000000
H 46.16640885 35.35492781 26.18739565 437 39 0 1.00000000 1.00000000 1.00000000
H 43.19596102 35.93614616 26.44769428 438 39 0 1.00000000 1.00000000 1.00000000
H 42.54807934 34.29767777 26.99682568 439 39 0 1.00000000 1.00000000 1.00000000
H 43.59124023 34.45671755 25.51042077 440 39 0 1.00000000 1.00000000 1.00000000
O 44.53979929 33.48916679 28.09248550 441 39 0 1.00000000 0.05100000 0.05100000
C 19.75318561 39.15760256 28.98001623 442 40 0 0.56500000 0.56500000 0.56500000
C 18.86818553 38.40877976 29.86839842 443 40 0 0.56500000 0.56500000 0.56500000
C 19.23844659 38.50940066 31.32506275 444 40 0 0.56500000 0.56500000 0.56500000
H 19.66176176 38.90584729 27.88928365 445 40 0 1.00000000 1.00000000 1.00000000
H 20.78697340 38.90689457 29.25327489 446 40 0 1.00000000 1.00000000 1.00000000
H 19.75559818 40.19960688 29.20978640 447 40 0 1.00000000 1.00000000 1.00000000
H 20.00163124 39.24344517 31.51830325 448 40 0 1.00000000 1.00000000 1.00000000
H 19.63330759 37.53528388 31.75095989 449 40 0 1.00000000 1.00000000 1.00000000
H 18.32663229 38.78786711 31.94319009 450 40 0 1.00000000 1.00000000 1.00000000
O 17.96188947 37.70883434 29.52739173 451 40 0 1.00000000 0.05100000 0.05100000
C 39.73315730 53.30531556 8.41366331 452 41 0 0.56500000 0.56500000 0.56500000
C 40.35460135 54.56613646 8.89866248 453 41 0 0.56500000 0.56500000 0.56500000
C 41.76039803 54.79791426 8.37815814 454 41 0 0.56500000 0.56500000 0.56500000
H 39.81456406 53.16846032 7.35066906 455 41 0 1.00000000 1.00000000 1.00000000
H 38.71211511 53.17518815 8.74459997 456 41 0 1.00000000 1.00000000 1.00000000
H 40.30474020 52.44048869 8.76410899 457 41 0 1.00000000 1.00000000 1.00000000
H 42.21769702 55.67717040 8.81598078 458 41 0 1.00000000 1.00000000 1.00000000
H 41.71879982 54.96562322 7.22218275 459 41 0 1.00000000 1.00000000 1.00000000
H 42.42068820 53.98265141 8.45949053 460 41 0 1.00000000 1.00000000 1.00000000
O 39.70568148 55.39712925 9.49687281 461 41 0 1.00000000 0.05100000 0.05100000
C 27.73517162 41.32193189 23.61256526 462 42 0 0.56500000 0.56500000 0.56500000
C 29.18804120 41.83252956 23.52044628 463 42 0 0.56500000 0.56500000 0.56500000
C 30.16996223 40.78110155 23.44698455 464 42 0 0.56500000 0.56500000 0.56500000
H 27.09357944 42.16659258 23.41059202 465 42 0 1.00000000 1.00000000 1.00000000
H 27.52442119 40.93821481 24.64035995 466 42 0 1.00000000 1.00000000 1.00000000
H 27.54270025 40.51955955 22.92468645 467 42 0 1.00000000 1.00000000 1.00000000
H 29.96429661 40.07557191 24.35034160 468 42 0 1.00000000 1.00000000 1.00000000
H 31.22994880 41.17397651 23.54369804 469 42 0 1.00000000 1.00000000 1.00000000
H 30.04678886 40.30327192 22.53194352 470 42 0 1.00000000 1.00000000 1.00000000
O 29.44429134 43.03272822 23.59792320 471 42 0 1.00000000 0.05100000 0.05100000
C 6.06464581 45.40042666 -1.25591642 472 43 0 0.56500000 0.56500000 0.56500000
C 7.08398959 45.11297648 -2.34457117 473 43 0 0.56500000 0.56500000 0.56500000
C 6.83145451 45.57240793 -3.78596124 474 43 0 0.56500000 0.56500000 0.56500000
H 6.06348005 44.54572765 -0.55274303 475 43 0 1.00000000 1.00000000 1.00000000
H 5.03216828 45.54757630 -1.66251853 476 43 0 1.00000000 1.00000000 1.00000000
H 6.38922670 46.30641391 -0.76732381 477 43 0 1.00000000 1.00000000 1.00000000
H 7.80656118 45.89442705 -4.27512249 478 43 0 1.00000000 1.00000000 1.00000000
H 6.11923039 46.33142102 -3.88009818 479 43 0 1.00000000 1.00000000 1.00000000
H 6.45175601 44.71391240 -4.35729214 480 43 0 1.00000000 1.00000000 1.00000000
O 8.12161427 44.49559116 -2.12733617 481 43 0 1.00000000 0.05100000 0.05100000
C 37.81218119 28.94151200 15.74298927 482 44 0 0.56500000 0.56500000 0.56500000
C 38.81347059 29.58651929 14.84733050 483 44 0 0.56500000 0.56500000 0.56500000
C 38.56216890 31.06025870 14.59697999 484 44 0 0.56500000 0.56500000 0.56500000
H 36.92616252 29.55556659 15.71990781 485 44 0 1.00000000 1.00000000 1.00000000
H 38.10352120 29.01510153 16.78345515 486 44 0 1.00000000 1.00000000 1.00000000
H 37.47620099 27.90578579 15.50953943 487 44 0 1.00000000 1.00000000 1.00000000
H 39.29761260 31.64964337 14.01993451 488 44 0 1.00000000 1.00000000 1.00000000
H 38.29562772 31.62535737 15.57674551 489 44 0 1.00000000 1.00000000 1.00000000
H 37.57986945 31.16295613 14.12739832 490 44 0 1.00000000 1.00000000 1.00000000
O 39.60564798 28.90651881 14.15914920 491 44 0 1.00000000 0.05100000 0.05100000
C 6.65987040 15.55365289 24.29348109 492 45 0 0.56500000 0.56500000 0.56500000
C 5.71209569 15.70224651 25.44857602 493 45 0 0.56500000 0.56500000 0.56500000
C 6.25643526 15.27248331 26.77828061 494 45 0 0.56500000 0.56500000 0.56500000
H 6.27125120 15.95465623 23.35859741 495 45 0 1.00000000 1.00000000 1.00000000
H 6.83293785 14.51599788 24.07582288 496 45 0 1.00000000 1.00000000 1.00000000
H 7.69431266 15.92116720 24.54286224 497 45 0 1.00000000 1.00000000 1.00000000
H 7.13410957 15.84914411 27.09679017 498 45 0 1.00000000 1.00000000 1.00000000
H 6.51117719 14.22311807 26.56611704 499 45 0 1.00000000 1.00000000 1.00000000
H 5.52803772 15.40200397 27.54630908 500 45 0 1.00000000 1.00000000 1.00000000
O 4.60242974 16.21167611 25.27116660 501 45 0 1.00000000 0.05100000 0.05100000
C 20.93113446 18.14347797 40.77358565 502 46 0 0.56500000 0.56500000 0.56500000
C 21.52714721 19.43664994 41.24892760 503 46 0 0.56500000 0.56500000 0.56500000
C 22.41992783 19.40918343 42.49668889 504 46 0 0.56500000 0.56500000 0.56500000
H 21.21284729 17.25906566 41.29387504 505 46 0 1.00000000 1.00000000 1.00000000
H 21.22312408 18.11056768 39.66468435 506 46 0 1.00000000 1.00000000 1.00000000
H 19.82610050 18.41985008 40.71508333 507 46 0 1.00000000 1.00000000 1.00000000
H 23.04266262 20.32939800 42.62241971 508 46 0 1.00000000 1.00000000 1.00000000
H 22.97418030 18.49359994 42.44620881 509 46 0 1.00000000 1.00000000 1.00000000
H 21.82097512 19.15352261 43.38186050 510 46 0 1.00000000 1.00000000 1.00000000
O 21.24638183 20.50151225 40.77932223 511 46 0 1.00000000 0.05100000 0.05100000
C 50.31647660 49.86172516 29.33405966 512 47 0 0.56500000 0.56500000 0.56500000
C 49.02197189 49.29327126 28.76984339 513 47 0 0.56500000 0.56500000 0.56500000
C 48.78765809 49.66291691 27.23502588 514 47 0 0.56500000 0.56500000 0.56500000
C 47.56747094 48.93382006 26.67949001 515 47 0 0.56500000 0.56500000 0.56500000
C 46.26316426 49.68848797 27.16076641 516 47 0 0.56500000 0.56500000 0.56500000
C 45.15767759 49.46832369 26.16439127 517 47 0 0.56500000 0.56500000 0.56500000
C 45.04408847 47.98905759 25.67781953 518 47 0 0.56500000 0.56500000 0.56500000
H 50.22036422 50.89296269 28.96596099 519 47 0 1.00000000 1.00000000 1.00000000
H 51.18570994 49.47004425 28.76223309 520 47 0 1.00000000 1.00000000 1.00000000
H 50.42302988 49.72373411 30.38774312 521 47 0 1.00000000 1.00000000 1.00000000
H 48.13796394 49.68213631 29.32622882 522 47 0 1.00000000 1.00000000 1.00000000
H 49.01611731 48.19649635 28.82614317 523 47 0 1.00000000 1.00000000 1.00000000
H 49.66670715 49.42121360 26.66599583 524 47 0 1.00000000 1.00000000 1.00000000
H 48.79409589 50.81260700 27.11648432 525 47 0 1.00000000 1.00000000 1.00000000
H 47.55717540 47.84095402 26.94224599 526 47 0 1.00000000 1.00000000 1.00000000
H 47.61294400 48.97533536 25.60823693 527 47 0 1.00000000 1.00000000 1.00000000
H 46.42052730 50.78516314 27.27057023 528 47 0 1.00000000 1.00000000 1.00000000
H 45.91527247 49.37559191 28.12665140 529 47 0 1.00000000 1.00000000 1.00000000
H 45.28537231 50.03073122 25.29933020 530 47 0 1.00000000 1.00000000 1.00000000
H 44.16225930 49.75177441 26.46881925 531 47 0 1.00000000 1.00000000 1.00000000
H 45.91425338 47.79290125 25.08102523 532 47 0 1.00000000 1.00000000 1.00000000
H 44.13050828 47.95907019 25.02925633 533 47 0 1.00000000 1.00000000 1.00000000
H 45.08929465 47.22104934 26.48399437 534 47 0 1.00000000 1.00000000 1.00000000
C 7.99214512 9.82879850 22.92453561 535 48 0 0.56500000 0.56500000 0.56500000
C 8.01624699 11.24925885 23.52930971 536 48 0 0.56500000 0.56500000 0.56500000
C 7.88987365 12.23190986 22.34322378 537 48 0 0.56500000 0.56500000 0.56500000
C 8.84171488 12.02695329 21.19342829 538 48 0 0.56500000 0.56500000 0.56500000
C 8.72098649 13.11358188 20.10499707 539 48 0 0.56500000 0.56500000 0.56500000
C 9.40778848 12.61535956 18.83308183 540 48 0 0.56500000 0.56500000 0.56500000
C 9.31595967 13.66472755 17.65870864 541 48 0 0.56500000 0.56500000 0.56500000
H 7.90880759 9.12728355 23.77745650 542 48 0 1.00000000 1.00000000 1.00000000
H 8.91445726 9.72200510 22.34410647 543 48 0 1.00000000 1.00000000 1.00000000
H 7.00928230 9.62510450 22.37366910 544 48 0 1.00000000 1.00000000 1.00000000
H 8.87932858 11.40999783 24.20077774 545 48 0 1.00000000 1.00000000 1.00000000
H 7.14166883 11.39401954 24.14340864 546 48 0 1.00000000 1.00000000 1.00000000
H 8.03818532 13.29143970 22.72894344 547 48 0 1.00000000 1.00000000 1.00000000
H 6.83897353 12.17579458 21.96728871 548 48 0 1.00000000 1.00000000 1.00000000
H 8.75101293 11.12354478 20.64399650 549 48 0 1.00000000 1.00000000 1.00000000
H 9.84120865 12.17091331 21.65092009 550 48 0 1.00000000 1.00000000 1.00000000
H 9.18152737 14.05082365 20.43079100 551 48 0 1.00000000 1.00000000 1.00000000
H 7.60479251 13.32794906 19.96920804 552 48 0 1.00000000 1.00000000 1.00000000
H 8.91944837 11.67169850 18.44039433 553 48 0 1.00000000 1.00000000 1.00000000
H 10.46931305 12.40242300 19.03046508 554 48 0 1.00000000 1.00000000 1.00000000
H 8.35210177 14.10667974 17.49706730 555 48 0 1.00000000 1.00000000 1.00000000
H 9.82612924 13.20514931 16.77765214 556 48 0 1.00000000 1.00000000 1.00000000
H 9.95852461 14.50004272 17.92432089 557 48 0 1.00000000 1.00000000 1.00000000
C 7.02729794 26.95217030 34.66661177 558 49 0 0.56500000 0.56500000 0.56500000
C 7.74410022 27.67921064 35.79653329 559 49 0 0.56500000 0.56500000 0.56500000
C 9.13390485 27.31554713 36.07850239 560 49 0 0.56500000 0.56500000 0.56500000
C 9.91255782 28.26652521 36.94217260 561 49 0 0.56500000 0.56500000 0.56500000
C 11.37160585 27.71333355 37.19016854 562 49 0 0.56500000 0.56500000 0.56500000
C 12.32214562 27.90646592 35.95888514 563 49 0 0.56500000 0.56500000 0.56500000
C 12.56005571 29.39677794 35.57987953 564 49 0 0.56500000 0.56500000 0.56500000
H 7.32226922 25.90578571 34.51386686 565 49 0 1.00000000 1.00000000 1.00000000
H 7.32900351 27.46367167 33.74265592 566 49 0 1.00000000 1.00000000 1.00000000
H 5.95087363 27.10389477 34.64309133 567 49 0 1.00000000 1.00000000 1.00000000
H 7.09564065 27.45235867 36.71959668 568 49 0 1.00000000 1.00000000 1.00000000
H 7.70523108 28.76581225 35.69395953 569 49 0 1.00000000 1.00000000 1.00000000
H 9.53528431 27.29255853 35.06651522 570 49 0 1.00000000 1.00000000 1.00000000
H 9.11644693 26.20910033 36.40122225 571 49 0 1.00000000 1.00000000 1.00000000
H 9.46227077 28.38734336 37.94085764 572 49 0 1.00000000 1.00000000 1.00000000
H 10.02303887 29.25981842 36.50640738 573 49 0 1.00000000 1.00000000 1.00000000
H 11.31177314 26.73346973 37.48595585 574 49 0 1.00000000 1.00000000 1.00000000
H 11.76637034 28.34915666 37.98028863 575 49 0 1.00000000 1.00000000 1.00000000
H 12.00356697 27.31372659 35.11344767 576 49 0 1.00000000 1.00000000 1.00000000
H 13.27824883 27.52884425 36.22455849 577 49 0 1.00000000 1.00000000 1.00000000
H 12.60028521 29.99094658 36.46771444 578 49 0 1.00000000 1.00000000 1.00000000
H 11.62461707 29.66488160 35.00264922 579 49 0 1.00000000 1.00000000 1.00000000
H 13.48810705 29.48638115 34.96135858 580 49 0 1.00000000 1.00000000 1.00000000
C 51.68866194 11.11569118 25.98171312 581 50 0 0.56500000 0.56500000 0.56500000
C 50.98491684 10.22497997 24.91888174 582 50 0 0.56500000 0.56500000 0.56500000
C 49.47070803 10.45391261 24.76118988 583 50 0 0.56500000 0.56500000 0.56500000
C 48.69185807 9.82556620 26.00467781 584 50 0 0.56500000 0.56500000 0.56500000
C 48.90314379 8.37975834 26.27012689 585 50 0 0.56500000 0.56500000 0.56500000
C 47.99504439 7.63308493 27.35985281 586 50 0 0.56500000 0.56500000 0.56500000
C 48.26694930 6.08012499 27.31644376 587 50 0 0.56500000 0.56500000 0.56500000
H 51.15403768 11.10943167 26.89259790 588 50 0 1.00000000 1.00000000 1.00000000
H 51.74825950 12.14055677 25.58053781 589 50 0 1.00000000 1.00000000 1.00000000
H 52.74900222 10.81934829 25.99209762 590 50 0 1.00000000 1.00000000 1.00000000
H 51.16863857 9.18010158 25.29167685 591 50 0 1.00000000 1.00000000 1.00000000
H 51.58921495 10.28671260 23.93704561 592 50 0 1.00000000 1.00000000 1.00000000
H 49.12955380 9.82093435 23.87128471 593 50 0 1.00000000 1.00000000 1.00000000
H 49.19614516 11.51095243 24.57824355 594 50 0 1.00000000 1.00000000 1.00000000
H 47.60910459 9.89341405 25.66608719 595 50 0 1.00000000 1.00000000 1.00000000
H 48.72888042 10.51095467 26.87617670 596 50 0 1.00000000 1.00000000 1.00000000
H 49.91672463 8.17808189 26.67709297 597 50 0 1.00000000 1.00000000 1.00000000
H 48.82537075 7.77337514 25.34749012 598 50 0 1.00000000 1.00000000 1.00000000
H 46.92534801 7.72330814 27.13766855 599 50 0 1.00000000 1.00000000 1.00000000
H 48.19474687 8.07222435 28.36962836 600 50 0 1.00000000 1.00000000 1.00000000
H 48.06413000 5.69323441 26.31164300 601 50 0 1.00000000 1.00000000 1.00000000
H 47.51480543 5.66307804 28.04695051 602 50 0 1.00000000 1.00000000 1.00000000
H 49.24862684 5.77894322 27.67572321 603 50 0 1.00000000 1.00000000 1.00000000
C 14.36008091 26.24365409 2.26164211 604 51 0 0.56500000 0.56500000 0.56500000
C 14.19727189 25.77930474 3.71446288 605 51 0 0.56500000 0.56500000 0.56500000
C 12.78751351 25.24451359 4.03429602 606 51 0 0.56500000 0.56500000 0.56500000
C 12.54844189 24.66974044 5.38171681 607 51 0 0.56500000 0.56500000 0.56500000
C 12.39279118 25.69111948 6.54200301 608 51 0 0.56500000 0.56500000 0.56500000
C 11.08553472 26.44971432 6.67872170 609 51 0 0.56500000 0.56500000 0.56500000
C 11.05096368 27.40110720 7.89720361 610 51 0 0.56500000 0.56500000 0.56500000
H 14.19834031 25.46170741 1.50693553 611 51 0 1.00000000 1.00000000 1.00000000
H 15.39203569 26.58651768 2.11177471 612 51 0 1.00000000 1.00000000 1.00000000
H 13.69396852 27.02080213 1.99944954 613 51 0 1.00000000 1.00000000 1.00000000
H 14.34561288 26.69356212 4.46662556 614 51 0 1.00000000 1.00000000 1.00000000
H 14.97586856 25.02318719 3.98519670 615 51 0 1.00000000 1.00000000 1.00000000
H 12.53058081 24.50726266 3.28227524 616 51 0 1.00000000 1.00000000 1.00000000
H 11.98749159 25.94452645 3.96874985 617 51 0 1.00000000 1.00000000 1.00000000
H 13.34090400 23.85167236 5.60351273 618 51 0 1.00000000 1.00000000 1.00000000
H 11.57875421 24.14925730 5.34525019 619 51 0 1.00000000 1.00000000 1.00000000
H 13.12709751 26.54689790 6.46502814 620 51 0 1.00000000 1.00000000 1.00000000
H 12.59423120 25.26561446 7.56795933 621 51 0 1.00000000 1.00000000 1.00000000
H 10.33616127 25.71341687 6.86850564 622 51 0 1.00000000 1.00000000 1.00000000
H 10.79725777 26.93856204 5.75574715 623 51 0 1.00000000 1.00000000 1.00000000
H 11.30931386 28.42097845 7.58407211 624 51 0 1.00000000 1.00000000 1.00000000
H 11.92457783 27.10211064 8.51868129 625 51 0 1.00000000 1.00000000 1.00000000
H 10.07855779 27.42080309 8.46319622 626 51 0 1.00000000 1.00000000 1.00000000
C 9.35821633 19.22601665 32.69643440 627 52 0 0.56500000 0.56500000 0.56500000
C 9.70081706 19.65091283 34.04556754 628 52 0 0.56500000 0.56500000 0.56500000
C 10.09172854 18.38834628 34.89164522 629 52 0 0.56500000 0.56500000 0.56500000
C 10.00091554 18.77323049 36.38650029 630 52 0 0.56500000 0.56500000 0.56500000
C 10.50043482 17.63965529 37.29998791 631 52 0 0.56500000 0.56500000 0.56500000
C 10.20804112 17.88911224 38.76487329 632 52 0 0.56500000 0.56500000 0.56500000
C 10.92622193 19.20681544 39.06824457 633 52 0 0.56500000 0.56500000 0.56500000
H 9.10571152 20.08026261 32.04413039 634 52 0 1.00000000 1.00000000 1.00000000
H 8.47529483 18.69768439 32.60509768 635 52 0 1.00000000 1.00000000 1.00000000
H 10.17655196 18.71772041 32.20765526 636 52 0 1.00000000 1.00000000 1.00000000
H 8.94001788 20.15338852 34.66043114 637 52 0 1.00000000 1.00000000 1.00000000
H 10.65302748 20.25361230 33.91416978 638 52 0 1.00000000 1.00000000 1.00000000
H 11.16015980 18.06941936 34.64610377 639 52 0 1.00000000 1.00000000 1.00000000
H 9.42524198 17.57603117 34.56802736 640 52 0 1.00000000 1.00000000 1.00000000
H 9.03634337 19.14938464 36.77327682 641 52 0 1.00000000 1.00000000 1.00000000
H 10.63294400 19.66369449 36.45948890 642 52 0 1.00000000 1.00000000 1.00000000
H 11.53854201 17.47921519 37.05987707 643 52 0 1.00000000 1.00000000 1.00000000
H 9.92155527 16.80792966 36.95925888 644 52 0 1.00000000 1.00000000 1.00000000
H 10.67935308 17.07693490 39.35327274 645 52 0 1.00000000 1.00000000 1.00000000
H 9.11845700 17.92202343 38.98733035 646 52 0 1.00000000 1.00000000 1.00000000
H 11.96863735 19.13079364 38.70463376 647 52 0 1.00000000 1.00000000 1.00000000
H 10.90937503 19.47856186 40.11637049 648 52 0 1.00000000 1.00000000 1.00000000
H 10.33989555 19.96337116 38.52718853 649 52 0 1.00000000 1.00000000 1.00000000
C 0.00902700 39.60286474 20.82786771 650 53 0 0.56500000 0.56500000 0.56500000
C 1.48029912 39.85884175 20.78244958 651 53 0 0.56500000 0.56500000 0.56500000
C 2.01009877 39.44854318 19.33969468 652 53 0 0.56500000 0.56500000 0.56500000
C 3.55750855 39.65567201 19.21534036 653 53 0 0.56500000 0.56500000 0.56500000
C 4.21891996 39.41065707 17.79829613 654 53 0 0.56500000 0.56500000 0.56500000
C 5.65769108 40.14097853 17.78928572 655 53 0 0.56500000 0.56500000 0.56500000
C 6.80434203 39.48026716 17.03598789 656 53 0 0.56500000 0.56500000 0.56500000
H -0.38281851 38.61649415 20.61606006 657 53 0 1.00000000 1.00000000 1.00000000
H -0.47701197 40.23957559 20.12785005 658 53 0 1.00000000 1.00000000 1.00000000
H -0.47449671 39.93882205 21.74738516 659 53 0 1.00000000 1.00000000 1.00000000
H 2.10596481 39.26237529 21.45350474 660 53 0 1.00000000 1.00000000 1.00000000
H 1.59022424 40.94277900 21.07732618 661 53 0 1.00000000 1.00000000 1.00000000
H 1.48484623 40.12846487 18.63683177 662 53 0 1.00000000 1.00000000 1.00000000
H 1.72565523 38.38328320 19.18993175 663 53 0 1.00000000 1.00000000 1.00000000
H 4.00687504 39.02968319 19.97295677 664 53 0 1.00000000 1.00000000 1.00000000
H 3.63961463 40.71976791 19.44439295 665 53 0 1.00000000 1.00000000 1.00000000
H 3.67757082 39.91639155 17.02359673 666 53 0 1.00000000 1.00000000 1.00000000
H 4.44294569 38.33100056 17.46939157 667 53 0 1.00000000 1.00000000 1.00000000
H 5.85755050 40.42535130 18.81630269 668 53 0 1.00000000 1.00000000 1.00000000
H 5.51150851 41.13447493 17.29290448 669 53 0 1.00000000 1.00000000 1.00000000
H 6.64551763 39.37393485 15.99638886 670 53 0 1.00000000 1.00000000 1.00000000
H 7.07671930 38.57107546 17.45911202 671 53 0 1.00000000 1.00000000 1.00000000
H 7.66162315 40.15024430 17.13981593 672 53 0 1.00000000 1.00000000 1.00000000
C 10.53701379 13.43665482 6.11065712 673 54 0 0.56500000 0.56500000 0.56500000
C 10.16208585 12.16976234 6.95050283 674 54 0 0.56500000 0.56500000 0.56500000
C 11.23377187 11.79701722 7.95740123 675 54 0 0.56500000 0.56500000 0.56500000
C 12.46777791 11.12279451 7.43233686 676 54 0 0.56500000 0.56500000 0.56500000
C 12.21614529 9.72430566 6.92722272 677 54 0 0.56500000 0.56500000 0.56500000
C 13.40100144 8.83597945 6.76487825 678 54 0 0.56500000 0.56500000 0.56500000
C 14.54314058 9.27416717 5.89125830 679 54 0 0.56500000 0.56500000 0.56500000
H 9.84541578 13.89437189 5.43440687 680 54 0 1.00000000 1.00000000 1.00000000
H 11.38132512 13.22483750 5.51995986 681 54 0 1.00000000 1.00000000 1.00000000
H 10.73931545 14.19644047 6.83939817 682 54 0 1.00000000 1.00000000 1.00000000
H 9.92769813 11.33268692 6.29995981 683 54 0 1.00000000 1.00000000 1.00000000
H 9.16043660 12.50166001 7.41446971 684 54 0 1.00000000 1.00000000 1.00000000
H 10.68269220 11.14498479 8.73251379 685 54 0 1.00000000 1.00000000 1.00000000
H 11.58469632 12.68701522 8.47220347 686 54 0 1.00000000 1.00000000 1.00000000
H 13.15482426 11.03116024 8.24996074 687 54 0 1.00000000 1.00000000 1.00000000
H 12.89138859 11.70217670 6.59167877 688 54 0 1.00000000 1.00000000 1.00000000
H 11.74622473 9.80888348 5.94612510 689 54 0 1.00000000 1.00000000 1.00000000
H 11.49073034 9.11945605 7.52751910 690 54 0 1.00000000 1.00000000 1.00000000
H 13.05295803 7.87486774 6.52961809 691 54 0 1.00000000 1.00000000 1.00000000
H 13.69480970 8.84815143 7.86088541 692 54 0 1.00000000 1.00000000 1.00000000
H 14.72117273 10.33001480 5.83721901 693 54 0 1.00000000 1.00000000 1.00000000
H 14.37360377 8.94155886 4.84795995 694 54 0 1.00000000 1.00000000 1.00000000
H 15.46493903 8.76727784 6.09934985 695 54 0 1.00000000 1.00000000 1.00000000
C 42.93184515 12.24776946 1.03479015 696 55 0 0.56500000 0.56500000 0.56500000
C 43.19887288 13.65166124 0.56449968 697 55 0 0.56500000 0.56500000 0.56500000
C 42.00543643 14.62675982 0.71931226 698 55 0 0.56500000 0.56500000 0.56500000
C 42.31323288 16.05863594 0.15091271 699 55 0 0.56500000 0.56500000 0.56500000
C 41.09941135 16.91653095 0.21436624 700 55 0 0.56500000 0.56500000 0.56500000
C 41.35236855 18.38849415 0.19138152 701 55 0 0.56500000 0.56500000 0.56500000
C 41.81192224 18.75324843 -1.25501624 702 55 0 0.56500000 0.56500000 0.56500000
H 42.13886363 11.71687627 0.54186506 703 55 0 1.00000000 1.00000000 1.00000000
H 42.78508293 12.33128957 2.07938137 704 55 0 1.00000000 1.00000000 1.00000000
H 43.84597226 11.63053454 0.85210789 705 55 0 1.00000000 1.00000000 1.00000000
H 43.51859823 13.77025436 -0.50540324 706 55 0 1.00000000 1.00000000 1.00000000
H 43.96277707 14.15112794 1.14605628 707 55 0 1.00000000 1.00000000 1.00000000
H 41.69968515 14.73324894 1.77290932 708 55 0 1.00000000 1.00000000 1.00000000
H 41.18275882 14.29414269 0.14124894 709 55 0 1.00000000 1.00000000 1.00000000
H 42.51237045 15.94895693 -0.90972630 710 55 0 1.00000000 1.00000000 1.00000000
H 43.16964179 16.52661617 0.66705957 711 55 0 1.00000000 1.00000000 1.00000000
H 40.57280494 16.62675533 1.14868132 712 55 0 1.00000000 1.00000000 1.00000000
H 40.39216551 16.69044735 -0.61142802 713 55 0 1.00000000 1.00000000 1.00000000
H 42.21413814 18.66661394 0.76945647 714 55 0 1.00000000 1.00000000 1.00000000
H 40.53417506 19.10329403 0.47865381 715 55 0 1.00000000 1.00000000 1.00000000
H 42.76697815 18.24547935 -1.34635022 716 55 0 1.00000000 1.00000000 1.00000000
H 41.93272423 19.75199175 -1.58960496 717 55 0 1.00000000 1.00000000 1.00000000
H 41.09032975 18.53080720 -2.03555627 718 55 0 1.00000000 1.00000000 1.00000000
C 48.54659306 7.18703412 39.19342456 719 56 0 0.56500000 0.56500000 0.56500000
C 48.57480066 8.52987182 38.46525600 720 56 0 0.56500000 0.56500000 0.56500000
C 49.90839912 8.91490431 37.92068546 721 56 0 0.56500000 0.56500000 0.56500000
C 50.04792498 10.37156582 37.54654283 722 56 0 0.56500000 0.56500000 0.56500000
C 51.31305912 10.75155221 36.78007713 723 56 0 0.56500000 0.56500000 0.56500000
C 51.71686362 12.17822790 36.95467972 724 56 0 0.56500000 0.56500000 0.56500000
C 52.75035517 12.69014741 35.96481313 725 56 0 0.56500000 0.56500000 0.56500000
H 47.52130265 6.90923030 39.52729716 726 56 0 1.00000000 1.00000000 1.00000000
H 49.17259161 7.39667714 40.06245817 727 56 0 1.00000000 1.00000000 1.00000000
H 48.94753065 6.35418592 38.65251810 728 56 0 1.00000000 1.00000000 1.00000000
H 48.31998775 9.25325932 39.20404355 729 56 0 1.00000000 1.00000000 1.00000000
H 47.79100548 8.51090379 37.61612007 730 56 0 1.00000000 1.00000000 1.00000000
H 50.18645574 8.28137579 37.08868653 731 56 0 1.00000000 1.00000000 1.00000000
H 50.70060864 8.76272571 38.57424306 732 56 0 1.00000000 1.00000000 1.00000000
H 49.87489182 10.90025172 38.47688950 733 56 0 1.00000000 1.00000000 1.00000000
H 49.13382610 10.61277418 36.96648801 734 56 0 1.00000000 1.00000000 1.00000000
H 51.18559328 10.53165726 35.74532228 735 56 0 1.00000000 1.00000000 1.00000000
H 52.10800393 10.03772014 37.05560825 736 56 0 1.00000000 1.00000000 1.00000000
H 51.95895752 12.39497726 38.00547968 737 56 0 1.00000000 1.00000000 1.00000000
H 50.76622552 12.72602956 36.74664869 738 56 0 1.00000000 1.00000000 1.00000000
H 52.34313043 12.76132115 34.96564000 739 56 0 1.00000000 1.00000000 1.00000000
H 53.68000659 12.16541965 35.97036272 740 56 0 1.00000000 1.00000000 1.00000000
H 52.98407895 13.70338132 36.20793662 741 56 0 1.00000000 1.00000000 1.00000000
C 13.55566560 13.11543262 -3.06829083 742 57 0 0.56500000 0.56500000 0.56500000
C 14.66977874 13.60037014 -2.16299639 743 57 0 0.56500000 0.56500000 0.56500000
C 15.08620127 15.03791930 -2.40721153 744 57 0 0.56500000 0.56500000 0.56500000
C 16.39493461 15.32278691 -1.63686355 745 57 0 0.56500000 0.56500000 0.56500000
C 17.06634085 16.55883536 -2.11985462 746 57 0 0.56500000 0.56500000 0.56500000
C 18.32328780 16.81063790 -1.26897210 747 57 0 0.56500000 0.56500000 0.56500000
C 18.98834690 18.14329022 -1.55370285 748 57 0 0.56500000 0.56500000 0.56500000
H 13.28403730 12.08139678 -2.71796383 749 57 0 1.00000000 1.00000000 1.00000000
H 13.94353650 13.11753446 -4.09555773 750 57 0 1.00000000 1.00000000 1.00000000
H 12.60969529 13.75366736 -3.09164259 751 57 0 1.00000000 1.00000000 1.00000000
H 15.54249432 12.99301602 -2.39180188 752 57 0 1.00000000 1.00000000 1.00000000
H 14.37504238 13.51580083 -1.12166801 753 57 0 1.00000000 1.00000000 1.00000000
H 14.40230802 15.76662004 -1.89303523 754 57 0 1.00000000 1.00000000 1.00000000
H 15.25407797 15.21649058 -3.46251309 755 57 0 1.00000000 1.00000000 1.00000000
H 17.02889667 14.45746105 -1.75086456 756 57 0 1.00000000 1.00000000 1.00000000
H 16.17719649 15.45524632 -0.56865706 757 57 0 1.00000000 1.00000000 1.00000000
H 16.32234874 17.28627093 -1.99228178 758 57 0 1.00000000 1.00000000 1.00000000
H 17.38882436 16.47872990 -3.19697015 759 57 0 1.00000000 1.00000000 1.00000000
H 18.95290344 15.99659375 -1.60873613 760 57 0 1.00000000 1.00000000 1.00000000
H 18.04129375 16.64182639 -0.21239270 761 57 0 1.00000000 1.00000000 1.00000000
H 19.95605008 18.33395447 -1.06118960 762 57 0 1.00000000 1.00000000 1.00000000
H 18.49807967 19.13740822 -1.24825145 763 57 0 1.00000000 1.00000000 1.00000000
H 19.18371025 18.16582524 -2.63887819 764 57 0 1.00000000 1.00000000 1.00000000
C 10.52448767 36.46860935 38.74468700 765 58 0 0.56500000 0.56500000 0.56500000
C 10.27160861 37.95837081 39.13895669 766 58 0 0.56500000 0.56500000 0.56500000
C 8.78226236 38.32534832 39.30864047 767 58 0 0.56500000 0.56500000 0.56500000
C 8.77041899 39.79768199 39.83359229 768 58 0 0.56500000 0.56500000 0.56500000
C 7.41157396 40.44094847 39.99922241 769 58 0 0.56500000 0.56500000 0.56500000
C 7.66309196 41.92412233 40.29595005 770 58 0 0.56500000 0.56500000 0.56500000
C 8.36862513 42.14792250 41.64523374 771 58 0 0.56500000 0.56500000 0.56500000
H 10.18960470 35.86730721 39.50122148 772 58 0 1.00000000 1.00000000 1.00000000
H 11.60298979 36.36912189 38.54160242 773 58 0 1.00000000 1.00000000 1.00000000
H 9.93626124 36.27702452 37.80750422 774 58 0 1.00000000 1.00000000 1.00000000
H 10.73298577 38.62897318 38.41418468 775 58 0 1.00000000 1.00000000 1.00000000
H 10.84146433 38.22714793 40.05656955 776 58 0 1.00000000 1.00000000 1.00000000
H 8.27053716 37.68864429 40.11582615 777 58 0 1.00000000 1.00000000 1.00000000
H 8.24433188 38.11881310 38.38808262 778 58 0 1.00000000 1.00000000 1.00000000
H 9.35838432 40.29182278 39.05125169 779 58 0 1.00000000 1.00000000 1.00000000
H 9.41890052 39.77713725 40.68643400 780 58 0 1.00000000 1.00000000 1.00000000
H 6.94382706 39.97083831 40.84979838 781 58 0 1.00000000 1.00000000 1.00000000
H 6.76250194 40.27788078 39.14252404 782 58 0 1.00000000 1.00000000 1.00000000
H 6.80830662 42.65644311 40.37109933 783 58 0 1.00000000 1.00000000 1.00000000
H 8.30343325 42.35011707 39.48537012 784 58 0 1.00000000 1.00000000 1.00000000
H 8.15388664 43.15695871 41.92606664 785 58 0 1.00000000 1.00000000 1.00000000
H 9.48405971 42.05913499 41.48150704 786 58 0 1.00000000 1.00000000 1.00000000
H 8.05732109 41.40638095 42.34008855 787 58 0 1.00000000 1.00000000 1.00000000
C 32.41812299 24.81745058 26.78736699 788 59 0 0.56500000 0.56500000 0.56500000
C 31.34120322 23.92771710 26.13479874 789 59 0 0.56500000 0.56500000 0.56500000
C 31.27627738 22.49606924 26.69172103 790 59 0 0.56500000 0.56500000 0.56500000
C 32.39097217 21.52976300 26.28667745 791 59 0 0.56500000 0.56500000 0.56500000
C 32.10046912 20.04227705 26.66489128 792 59 0 0.56500000 0.56500000 0.56500000
C 30.83573830 19.47798895 25.91091581 793 59 0 0.56500000 0.56500000 0.56500000
C 30.95333348 17.99827792 25.98390301 794 59 0 0.56500000 0.56500000 0.56500000
H 33.33308639 24.30091612 27.06538059 795 59 0 1.00000000 1.00000000 1.00000000
H 32.03370711 25.24730082 27.72091939 796 59 0 1.00000000 1.00000000 1.00000000
H 32.71398529 25.61512861 26.13490476 797 59 0 1.00000000 1.00000000 1.00000000
H 31.42873363 23.89780507 25.04346125 798 59 0 1.00000000 1.00000000 1.00000000
H 30.30331936 24.32994607 26.19266134 799 59 0 1.00000000 1.00000000 1.00000000
H 30.26139941 22.11312080 26.52726595 800 59 0 1.00000000 1.00000000 1.00000000
H 31.32133812 22.61462663 27.81108965 801 59 0 1.00000000 1.00000000 1.00000000
H 33.31431532 21.92616157 26.78845782 802 59 0 1.00000000 1.00000000 1.00000000
H 32.65740707 21.58804205 25.13876394 803 59 0 1.00000000 1.00000000 1.00000000
H 31.86388936 20.10057206 27.76020130 804 59 0 1.00000000 1.00000000 1.00000000
H 32.90186736 19.31967393 26.43698397 805 59 0 1.00000000 1.00000000 1.00000000
H 30.76192279 19.83969919 24.90447966 806 59 0 1.00000000 1.00000000 1.00000000
H 29.91198561 19.77411538 26.45883088 807 59 0 1.00000000 1.00000000 1.00000000
H 31.98863063 17.71437667 25.70056716 808 59 0 1.00000000 1.00000000 1.00000000
H 30.16914997 17.43425202 25.41499151 809 59 0 1.00000000 1.00000000 1.00000000
H 30.81246359 17.64574674 26.99362600 810 59 0 1.00000000 1.00000000 1.00000000
C 35.08855676 40.65545216 0.57337569 811 60 0 0.56500000 0.56500000 0.56500000
C 34.16623007 40.56687336 1.81010440 812 60 0 0.56500000 0.56500000 0.56500000
C 34.34752316 41.72852452 2.84548021 813 60 0 0.56500000 0.56500000 0.56500000
C 35.73987590 41.76728602 3.47424790 814 60 0 0.56500000 0.56500000 0.56500000
C 36.22917285 40.41088448 3.82270915 815 60 0 0.56500000 0.56500000 0.56500000
C 37.58114372 40.29761631 4.67824314 816 60 0 0.56500000 0.56500000 0.56500000
C 37.86116782 38.78007611 4.89467893 817 60 0 0.56500000 0.56500000 0.56500000
H 35.25546219 41.71823208 0.15921321 818 60 0 1.00000000 1.00000000 1.00000000
H 34.66145278 40.02415598 -0.17636268 819 60 0 1.00000000 1.00000000 1.00000000
H 36.08142948 40.29437031 0.75523003 820 60 0 1.00000000 1.00000000 1.00000000
H 34.20932415 39.62274971 2.37933589 821 60 0 1.00000000 1.00000000 1.00000000
H 33.15854468 40.64214453 1.46013456 822 60 0 1.00000000 1.00000000 1.00000000
H 33.62043819 41.58237690 3.63938035 823 60 0 1.00000000 1.00000000 1.00000000
H 34.14223934 42.69726439 2.34607017 824 60 0 1.00000000 1.00000000 1.00000000
H 35.77038605 42.48499154 4.34326260 825 60 0 1.00000000 1.00000000 1.00000000
H 36.42014621 42.11992438 2.71393257 826 60 0 1.00000000 1.00000000 1.00000000
H 36.32729593 39.77391258 2.93557905 827 60 0 1.00000000 1.00000000 1.00000000
H 35.41374146 39.87151612 4.35159310 828 60 0 1.00000000 1.00000000 1.00000000
H 37.41182554 40.73375556 5.62523135 829 60 0 1.00000000 1.00000000 1.00000000
H 38.40140068 40.68173036 4.13146405 830 60 0 1.00000000 1.00000000 1.00000000
H 38.07499625 38.31394523 3.96694077 831 60 0 1.00000000 1.00000000 1.00000000
H 36.94449219 38.34911391 5.42174184 832 60 0 1.00000000 1.00000000 1.00000000
H 38.71595523 38.50184503 5.57327819 833 60 0 1.00000000 1.00000000 1.00000000
C 36.56468745 35.26235053 8.82267732 834 61 0 0.56500000 0.56500000 0.56500000
C 37.03667238 36.64489427 9.15210025 835 61 0 0.56500000 0.56500000 0.56500000
C 38.53769535 36.91577144 9.11486656 836 61 0 0.56500000 0.56500000 0.56500000
C 38.81527761 38.31495358 9.62114095 837 61 0 0.56500000 0.56500000 0.56500000
C 40.18400244 38.82171771 9.08176794 838 61 0 0.56500000 0.56500000 0.56500000
C 40.45523011 40.32707518 9.34091703 839 61 0 0.56500000 0.56500000 0.56500000
C 40.32719780 40.81778633 10.76607788 840 61 0 0.56500000 0.56500000 0.56500000
H 36.82323912 34.89268415 7.76978494 841 61 0 1.00000000 1.00000000 1.00000000
H 35.48722644 35.30609892 8.83206917 842 61 0 1.00000000 1.00000000 1.00000000
H 36.86480068 34.47757033 9.49508803 843 61 0 1.00000000 1.00000000 1.00000000
H 36.65201149 37.04798231 10.13424636 844 61 0 1.00000000 1.00000000 1.00000000
H 36.65550938 37.30385425 8.44013431 845 61 0 1.00000000 1.00000000 1.00000000
H 38.87238916 36.93855968 8.05876991 846 61 0 1.00000000 1.00000000 1.00000000
H 39.14321335 36.30035616 9.72840546 847 61 0 1.00000000 1.00000000 1.00000000
H 38.75346637 38.33963764 10.73530854 848 61 0 1.00000000 1.00000000 1.00000000
H 38.06619476 39.05762028 9.25687698 849 61 0 1.00000000 1.00000000 1.00000000
H 40.10370644 38.54249462 8.01355255 850 61 0 1.00000000 1.00000000 1.00000000
H 41.00673342 38.27271182 9.52884826 851 61 0 1.00000000 1.00000000 1.00000000
H 39.86885860 40.79343318 8.55172829 852 61 0 1.00000000 1.00000000 1.00000000
H 41.52070089 40.45918499 8.98155199 853 61 0 1.00000000 1.00000000 1.00000000
H 40.21161564 41.90819135 10.73828738 854 61 0 1.00000000 1.00000000 1.00000000
H 41.07771163 40.41206025 11.47221479 855 61 0 1.00000000 1.00000000 1.00000000
H 39.32020375 40.49938365 11.12592619 856 61 0 1.00000000 1.00000000 1.00000000
C 15.69454065 19.09162949 11.85242960 857 62 0 0.56500000 0.56500000 0.56500000
C 15.48249852 17.60053810 12.10016608 858 62 0 0.56500000 0.56500000 0.56500000
C 15.98799010 17.17428389 13.50499084 859 62 0 0.56500000 0.56500000 0.56500000
C 15.77820630 15.68647156 13.66464541 860 62 0 0.56500000 0.56500000 0.56500000
C 16.53110237 15.08154825 14.91316019 861 62 0 0.56500000 0.56500000 0.56500000
C 16.45367250 13.54118084 14.91771067 862 62 0 0.56500000 0.56500000 0.56500000
C 17.51638826 12.71245744 14.31828985 863 62 0 0.56500000 0.56500000 0.56500000
H 15.41285249 19.80252753 12.67192951 864 62 0 1.00000000 1.00000000 1.00000000
H 15.29798542 19.46967483 10.90079026 865 62 0 1.00000000 1.00000000 1.00000000
H 16.73588258 19.31129811 11.73530747 866 62 0 1.00000000 1.00000000 1.00000000
H 15.93061183 17.03074795 11.29344605 867 62 0 1.00000000 1.00000000 1.00000000
H 14.35759320 17.42514919 12.10990276 868 62 0 1.00000000 1.00000000 1.00000000
H 15.46852456 17.71985174 14.34540841 869 62 0 1.00000000 1.00000000 1.00000000
H 17.06780335 17.45947656 13.67713918 870 62 0 1.00000000 1.00000000 1.00000000
H 16.12665514 15.15457631 12.73109237 871 62 0 1.00000000 1.00000000 1.00000000
H 14.70854546 15.51016636 13.65862066 872 62 0 1.00000000 1.00000000 1.00000000
H 15.99530014 15.43403674 15.82421608 873 62 0 1.00000000 1.00000000 1.00000000
H 17.56062663 15.49962670 14.97343458 874 62 0 1.00000000 1.00000000 1.00000000
H 15.47082096 13.34024641 14.47888802 875 62 0 1.00000000 1.00000000 1.00000000
H 16.36314846 13.18659603 15.93671757 876 62 0 1.00000000 1.00000000 1.00000000
H 17.61913124 12.84619723 13.22534080 877 62 0 1.00000000 1.00000000 1.00000000
H 17.25726305 11.67128326 14.46965943 878 62 0 1.00000000 1.00000000 1.00000000
H 18.48540407 12.93690068 14.77941875 879 62 0 1.00000000 1.00000000 1.00000000
C 35.82355451 34.42223295 18.13311548 880 63 0 0.56500000 0.56500000 0.56500000
C 35.93282996 33.10854752 18.87122782 881 63 0 0.56500000 0.56500000 0.56500000
C 37.31500157 32.82709408 19.38737778 882 63 0 0.56500000 0.56500000 0.56500000
C 37.26404079 31.91060590 20.64416448 883 63 0 0.56500000 0.56500000 0.56500000
C 38.65028572 31.27763401 20.98211658 884 63 0 0.56500000 0.56500000 0.56500000
C 38.44897901 30.41770446 22.29310937 885 63 0 0.56500000 0.56500000 0.56500000
C 39.71474887 30.07870638 23.09874214 886 63 0 0.56500000 0.56500000 0.56500000
H 34.83217847 34.89015685 18.00782919 887 63 0 1.00000000 1.00000000 1.00000000
H 36.22614321 34.48645520 17.11219974 888 63 0 1.00000000 1.00000000 1.00000000
H 36.37789861 35.18141223 18.66824127 889 63 0 1.00000000 1.00000000 1.00000000
H 35.66030985 32.25021266 18.26516368 890 63 0 1.00000000 1.00000000 1.00000000
H 35.22655867 33.22085467 19.63576156 891 63 0 1.00000000 1.00000000 1.00000000
H 37.82618708 33.73244943 19.45178494 892 63 0 1.00000000 1.00000000 1.00000000
H 37.81100273 32.26334365 18.61835816 893 63 0 1.00000000 1.00000000 1.00000000
H 36.62273077 31.01721004 20.37598467 894 63 0 1.00000000 1.00000000 1.00000000
H 36.74845368 32.34059856 21.52290847 895 63 0 1.00000000 1.00000000 1.00000000
H 39.41390476 32.05012087 21.05371845 896 63 0 1.00000000 1.00000000 1.00000000
H 39.06369933 30.75858108 20.12577933 897 63 0 1.00000000 1.00000000 1.00000000
H 37.95965678 29.52782032 21.96721230 898 63 0 1.00000000 1.00000000 1.00000000
H 37.73852000 30.92913970 22.88147061 899 63 0 1.00000000 1.00000000 1.00000000
H 40.36360208 30.98245197 23.08078380 900 63 0 1.00000000 1.00000000 1.00000000
H 40.33736890 29.24082068 22.73609810 901 63 0 1.00000000 1.00000000 1.00000000
H 39.52000475 29.82139153 24.10737885 902 63 0 1.00000000 1.00000000 1.00000000
C 12.07619982 33.58170170 1.17159437 903 64 0 0.56500000 0.56500000 0.56500000
C 13.19483486 33.72161807 2.22698732 904 64 0 0.56500000 0.56500000 0.56500000
C 14.15523304 32.54594667 2.33032933 905 64 0 0.56500000 0.56500000 0.56500000
C 15.55345017 32.91069002 2.68102765 906 64 0 0.56500000 0.56500000 0.56500000
C 16.49181459 31.73234242 2.77210712 907 64 0 0.56500000 0.56500000 0.56500000
C 17.93644671 32.02478635 3.06804389 908 64 0 0.56500000 0.56500000 0.56500000
C 18.92836770 30.84331181 2.93340069 909 64 0 0.56500000 0.56500000 0.56500000
H 11.51086323 34.46872355 1.25152392 910 64 0 1.00000000 1.00000000 1.00000000
H 11.42475211 32.73851491 1.42984461 911 64 0 1.00000000 1.00000000 1.00000000
H 12.47574770 33.49853035 0.12934026 912 64 0 1.00000000 1.00000000 1.00000000
H 12.70266977 34.04922653 3.17828017 913 64 0 1.00000000 1.00000000 1.00000000
H 13.86762882 34.54143240 1.97581472 914 64 0 1.00000000 1.00000000 1.00000000
H 14.06099228 32.08287707 1.27049653 915 64 0 1.00000000 1.00000000 1.00000000
H 13.85384130 31.69008834 2.93010393 916 64 0 1.00000000 1.00000000 1.00000000
H 15.58726106 33.38541590 3.68493371 917 64 0 1.00000000 1.00000000 1.00000000
H 15.85742623 33.68807606 1.94679903 918 64 0 1.00000000 1.00000000 1.00000000
H 16.46479408 31.18255693 1.78957759 919 64 0 1.00000000 1.00000000 1.00000000
H 16.08180876 31.08312377 3.56728443 920 64 0 1.00000000 1.00000000 1.00000000
H 18.01493682 32.46000142 4.11265656 921 64 0 1.00000000 1.00000000 1.00000000
H 18.35356117 32.71295138 2.33957250 922 64 0 1.00000000 1.00000000 1.00000000
H 19.96796695 31.10991841 3.26440740 923 64 0 1.00000000 1.00000000 1.00000000
H 19.08663151 30.62319095 1.86082744 924 64 0 1.00000000 1.00000000 1.00000000
H 18.59682798 29.94280157 3.45269026 925 64 0 1.00000000 1.00000000 1.00000000
C 36.49738382 48.49033531 7.18383227 926 65 0 0.56500000 0.56500000 0.56500000
C 36.42530127 50.03905319 7.10084604 927 65 0 0.56500000 0.56500000 0.56500000
C 36.30596267 50.64381564 5.75617059 928 65 0 0.56500000 0.56500000 0.56500000
C 36.54460600 52.09706675 5.70970803 929 65 0 0.56500000 0.56500000 0.56500000
C 35.62029274 52.96908848 6.57820643 930 65 0 0.56500000 0.56500000 0.56500000
C 34.24971076 53.17516448 6.04021136 931 65 0 0.56500000 0.56500000 0.56500000
C 33.50303139 54.29437648 6.76278930 932 65 0 0.56500000 0.56500000 0.56500000
H 37.45338518 48.11228466 6.62333800 933 65 0 1.00000000 1.00000000 1.00000000
H 35.66081607 47.87562283 6.77227626 934 65 0 1.00000000 1.00000000 1.00000000
H 36.52680026 48.11823764 8.20664750 935 65 0 1.00000000 1.00000000 1.00000000
H 37.23601577 50.51077416 7.57188583 936 65 0 1.00000000 1.00000000 1.00000000
H 35.61722816 50.31057936 7.74772380 937 65 0 1.00000000 1.00000000 1.00000000
H 35.36610389 50.29301428 5.31277993 938 65 0 1.00000000 1.00000000 1.00000000
H 37.00696197 50.15296843 5.09600371 939 65 0 1.00000000 1.00000000 1.00000000
H 36.41116615 52.55710039 4.71489079 940 65 0 1.00000000 1.00000000 1.00000000
H 37.54378558 52.33923482 6.03055700 941 65 0 1.00000000 1.00000000 1.00000000
H 36.13033268 53.97690385 6.64014014 942 65 0 1.00000000 1.00000000 1.00000000
H 35.53422217 52.62363573 7.61543934 943 65 0 1.00000000 1.00000000 1.00000000
H 33.74033500 52.25448668 6.21749842 944 65 0 1.00000000 1.00000000 1.00000000
H 34.16993169 53.25616591 4.96109865 945 65 0 1.00000000 1.00000000 1.00000000
H 34.20650954 55.18014878 6.86815297 946 65 0 1.00000000 1.00000000 1.00000000
H 33.34711332 54.06795304 7.80323810 947 65 0 1.00000000 1.00000000 1.00000000
H 32.62053767 54.73152868 6.28638077 948 65 0 1.00000000 1.00000000 1.00000000
C 16.54643143 44.76671238 11.57210787 949 66 0 0.56500000 0.56500000 0.56500000
C 15.69302009 44.16881785 10.43476272 950 66 0 0.56500000 0.56500000 0.56500000
C 14.18290451 44.18290492 10.71707710 951 66 0 0.56500000 0.56500000 0.56500000
C 13.40443545 43.81388869 9.42346728 952 66 0 0.56500000 0.56500000 0.56500000
C 11.89550563 44.16863745 9.60081606 953 66 0 0.56500000 0.56500000 0.56500000
C 11.15069834 43.10005419 10.43686734 954 66 0 0.56500000 0.56500000 0.56500000
C 9.66296961 43.34530244 10.58359623 955 66 0 0.56500000 0.56500000 0.56500000
H 16.45860064 44.09648560 12.48350296 956 66 0 1.00000000 1.00000000 1.00000000
H 16.15075468 45.76145405 11.83301870 957 66 0 1.00000000 1.00000000 1.00000000
H 17.56381739 44.70736020 11.20098756 958 66 0 1.00000000 1.00000000 1.00000000
H 15.87130060 43.08583797 10.24913397 959 66 0 1.00000000 1.00000000 1.00000000
H 15.91394734 44.67669017 9.46698169 960 66 0 1.00000000 1.00000000 1.00000000
H 13.89265930 45.20296284 11.04528066 961 66 0 1.00000000 1.00000000 1.00000000
H 13.88417261 43.58808047 11.58815960 962 66 0 1.00000000 1.00000000 1.00000000
H 13.59025707 42.78906886 9.20157790 963 66 0 1.00000000 1.00000000 1.00000000
H 13.81972214 44.37607376 8.54694467 964 66 0 1.00000000 1.00000000 1.00000000
H 11.49701628 44.31943439 8.53920162 965 66 0 1.00000000 1.00000000 1.00000000
H 11.81264819 45.16877579 10.06897254 966 66 0 1.00000000 1.00000000 1.00000000
H 11.72953333 42.93276512 11.37167422 967 66 0 1.00000000 1.00000000 1.00000000
H 11.20877792 42.09974190 9.93667777 968 66 0 1.00000000 1.00000000 1.00000000
H 9.17472624 43.11449094 9.68559723 969 66 0 1.00000000 1.00000000 1.00000000
H 9.59814315 44.38871589 10.88513823 970 66 0 1.00000000 1.00000000 1.00000000
H 9.17015153 42.77198165 11.37934463 971 66 0 1.00000000 1.00000000 1.00000000
C 35.23859880 17.01442931 20.49949123 972 67 0 0.56500000 0.56500000 0.56500000
C 34.79298172 17.93157198 21.62358849 973 67 0 0.56500000 0.56500000 0.56500000
C 34.91819320 19.44420432 21.22042652 974 67 0 0.56500000 0.56500000 0.56500000
C 34.53320512 20.36108953 22.34736614 975 67 0 0.56500000 0.56500000 0.56500000
C 35.25126182 20.13599213 23.66340841 976 67 0 0.56500000 0.56500000 0.56500000
C 36.71003880 20.55732776 23.67713117 977 67 0 0.56500000 0.56500000 0.56500000
C 37.36588092 19.98836182 24.91610688 978 67 0 0.56500000 0.56500000 0.56500000
H 35.44711191 16.08786622 21.01273357 979 67 0 1.00000000 1.00000000 1.00000000
H 36.13775771 17.45212689 20.14386108 980 67 0 1.00000000 1.00000000 1.00000000
H 34.53683646 16.98159564 19.65479110 981 67 0 1.00000000 1.00000000 1.00000000
H 35.48469867 17.73200887 22.46947930 982 67 0 1.00000000 1.00000000 1.00000000
H 33.75466758 17.76893286 21.92958841 983 67 0 1.00000000 1.00000000 1.00000000
H 34.19086684 19.68839548 20.38655332 984 67 0 1.00000000 1.00000000 1.00000000
H 35.93372951 19.59509736 20.90266315 985 67 0 1.00000000 1.00000000 1.00000000
H 33.47624933 20.31685812 22.60342738 986 67 0 1.00000000 1.00000000 1.00000000
H 34.67243446 21.42382606 22.07042750 987 67 0 1.00000000 1.00000000 1.00000000
H 35.25542301 19.03889479 23.93097070 988 67 0 1.00000000 1.00000000 1.00000000
H 34.73385138 20.66368309 24.48921670 989 67 0 1.00000000 1.00000000 1.00000000
H 36.89899004 21.67909716 23.74544517 990 67 0 1.00000000 1.00000000 1.00000000
H 37.16035512 20.16250111 22.78443718 991 67 0 1.00000000 1.00000000 1.00000000
H 36.98827953 20.53647877 25.75663920 992 67 0 1.00000000 1.00000000 1.00000000
H 38.49620866 19.96953543 24.99872213 993 67 0 1.00000000 1.00000000 1.00000000
H 36.97707577 18.97812298 24.98313112 994 67 0 1.00000000 1.00000000 1.00000000
C 20.59240369 11.05347601 19.30618353 995 68 0 0.56500000 0.56500000 0.56500000
C 20.08339423 9.93088774 18.50593580 996 68 0 0.56500000 0.56500000 0.56500000
C 19.23791456 10.35501503 17.32007839 997 68 0 0.56500000 0.56500000 0.56500000
C 18.72391256 9.10881129 16.53202211 998 68 0 0.56500000 0.56500000 0.56500000
C 17.63637148 8.27862310 17.19836553 999 68 0 0.56500000 0.56500000 0.56500000
C 17.16460711 6.94182877 16.64330313 1000 68 0 0.56500000 0.56500000 0.56500000
C 15.81560956 6.53078205 17.26118794 1001 68 0 0.56500000 0.56500000 0.56500000
H 19.73862642 11.58020503 19.74352055 1002 68 0 1.00000000 1.00000000 1.00000000
H 21.15707599 11.77632116 18.72584496 1003 68 0 1.00000000 1.00000000 1.00000000
H 21.26059180 10.78195695 20.14347720 1004 68 0 1.00000000 1.00000000 1.00000000
H 19.63996638 9.23531365 19.10174930 1005 68 0 1.00000000 1.00000000 1.00000000
H 20.88784537 9.30571262 18.04425567 1006 68 0 1.00000000 1.00000000 1.00000000
H 19.87845279 10.95387568 16.60664462 1007 68 0 1.00000000 1.00000000 1.00000000
H 18.42378801 10.98535687 17.66324579 1008 68 0 1.00000000 1.00000000 1.00000000
H 19.54337856 8.44822789 16.29665641 1009 68 0 1.00000000 1.00000000 1.00000000
H 18.21706187 9.38554578 15.55510839 1010 68 0 1.00000000 1.00000000 1.00000000
H 16.82862795 8.92010746 17.44982105 1011 68 0 1.00000000 1.00000000 1.00000000
H 17.96034603 8.01273326 18.30969878 1012 68 0 1.00000000 1.00000000 1.00000000
H 17.89024947 6.10451309 16.80462841 1013 68 0 1.00000000 1.00000000 1.00000000
H 16.94358886 7.02434012 15.57901686 1014 68 0 1.00000000 1.00000000 1.00000000
H 16.02550328 6.42672317 18.32191840 1015 68 0 1.00000000 1.00000000 1.00000000
H 15.45718229 5.54116926 16.96223898 1016 68 0 1.00000000 1.00000000 1.00000000
H 15.11062679 7.34225977 17.22283310 1017 68 0 1.00000000 1.00000000 1.00000000
C 21.41954210 13.21260198 2.52108412 1018 69 0 0.56500000 0.56500000 0.56500000
C 21.55135067 12.09479820 3.52829890 1019 69 0 0.56500000 0.56500000 0.56500000
C 22.20170787 10.88677024 2.91112140 1020 69 0 0.56500000 0.56500000 0.56500000
C 22.76340064 9.80556214 3.85234192 1021 69 0 0.56500000 0.56500000 0.56500000
C 23.56601336 8.88400690 2.87252867 1022 69 0 0.56500000 0.56500000 0.56500000
C 23.88575879 7.60152991 3.68189405 1023 69 0 0.56500000 0.56500000 0.56500000
C 24.88997016 6.67022560 3.07694150 1024 69 0 0.56500000 0.56500000 0.56500000
H 20.87908967 13.00832331 1.59115622 1025 69 0 1.00000000 1.00000000 1.00000000
H 22.39521649 13.55111505 2.10784998 1026 69 0 1.00000000 1.00000000 1.00000000
H 21.00749865 14.11653501 2.94978409 1027 69 0 1.00000000 1.00000000 1.00000000
H 20.54784623 11.82701751 3.97555642 1028 69 0 1.00000000 1.00000000 1.00000000
H 22.12823965 12.47645553 4.38630686 1029 69 0 1.00000000 1.00000000 1.00000000
H 23.06415250 11.27917835 2.34681449 1030 69 0 1.00000000 1.00000000 1.00000000
H 21.56023532 10.42505865 2.14858515 1031 69 0 1.00000000 1.00000000 1.00000000
H 21.86281227 9.23775375 4.14328496 1032 69 0 1.00000000 1.00000000 1.00000000
H 23.15108436 10.14711245 4.78464414 1033 69 0 1.00000000 1.00000000 1.00000000
H 24.46698895 9.43903482 2.49886840 1034 69 0 1.00000000 1.00000000 1.00000000
H 22.87790074 8.56812393 2.05127128 1035 69 0 1.00000000 1.00000000 1.00000000
H 22.92158899 7.07502043 3.96284452 1036 69 0 1.00000000 1.00000000 1.00000000
H 24.31440746 8.05789060 4.54910924 1037 69 0 1.00000000 1.00000000 1.00000000
H 25.89704366 7.00847915 3.11133935 1038 69 0 1.00000000 1.00000000 1.00000000
H 24.67429017 6.27132526 2.06226752 1039 69 0 1.00000000 1.00000000 1.00000000
H 25.04082257 5.70702959 3.61228491 1040 69 0 1.00000000 1.00000000 1.00000000
C 5.97913789 28.24722636 27.08748068 1041 70 0 0.56500000 0.56500000 0.56500000
C 5.14773923 27.70522342 28.25535977 1042 70 0 0.56500000 0.56500000 0.56500000
C 5.35404790 28.45156439 29.55998416 1043 70 0 0.56500000 0.56500000 0.56500000
C 4.44049415 27.76076797 30.63690488 1044 70 0 0.56500000 0.56500000 0.56500000
C 4.60984275 28.44445647 32.00534162 1045 70 0 0.56500000 0.56500000 0.56500000
C 3.69440538 27.80141909 33.07721817 1046 70 0 0.56500000 0.56500000 0.56500000
C 2.21429465 28.11335362 32.96087863 1047 70 0 0.56500000 0.56500000 0.56500000
H 6.94889365 27.81973367 27.13104749 1048 70 0 1.00000000 1.00000000 1.00000000
H 6.07836800 29.34086563 27.27481714 1049 70 0 1.00000000 1.00000000 1.00000000
H 5.54117570 28.12632783 26.08346920 1050 70 0 1.00000000 1.00000000 1.00000000
H 5.36693052 26.66004618 28.34176933 1051 70 0 1.00000000 1.00000000 1.00000000
H 4.09505707 27.77101415 27.99870062 1052 70 0 1.00000000 1.00000000 1.00000000
H 5.18944861 29.55450156 29.56438423 1053 70 0 1.00000000 1.00000000 1.00000000
H 6.39739431 28.21554559 29.94997325 1054 70 0 1.00000000 1.00000000 1.00000000
H 4.71421115 26.68945009 30.84250436 1055 70 0 1.00000000 1.00000000 1.00000000
H 3.44759875 27.80427719 30.21622305 1056 70 0 1.00000000 1.00000000 1.00000000
H 4.55647758 29.48755006 31.87263853 1057 70 0 1.00000000 1.00000000 1.00000000
H 5.63005385 28.26392787 32.34208419 1058 70 0 1.00000000 1.00000000 1.00000000
H 4.13928587 28.05060693 34.07903376 1059 70 0 1.00000000 1.00000000 1.00000000
H 3.89400324 26.70892924 33.11841679 1060 70 0 1.00000000 1.00000000 1.00000000
H 1.86836198 29.17603548 32.99301983 1061 70 0 1.00000000 1.00000000 1.00000000
H 1.50803567 27.56476964 33.64543480 1062 70 0 1.00000000 1.00000000 1.00000000
H 1.84429959 27.84278642 31.97079438 1063 70 0 1.00000000 1.00000000 1.00000000
C 17.37544653 46.75369000 21.96547687 1064 71 0 0.56500000 0.56500000 0.56500000
C 18.80222087 46.41835486 22.44855467 1065 71 0 0.56500000 0.56500000 0.56500000
C 19.90330573 47.28340117 21.80269473 1066 71 0 0.56500000 0.56500000 0.56500000
C 21.30457683 47.00649979 22.31630074 1067 71 0 0.56500000 0.56500000 0.56500000
C 22.37154866 47.97956722 21.75905854 1068 71 0 0.56500000 0.56500000 0.56500000
C 22.09087137 49.50204868 21.82863068 1069 71 0 0.56500000 0.56500000 0.56500000
C 23.36653993 50.30820211 21.60184775 1070 71 0 0.56500000 0.56500000 0.56500000
H 17.36788476 46.66967885 20.81868683 1071 71 0 1.00000000 1.00000000 1.00000000
H 16.97593789 47.72295858 22.33060921 1072 71 0 1.00000000 1.00000000 1.00000000
H 16.71130255 45.92951252 22.34763155 1073 71 0 1.00000000 1.00000000 1.00000000
H 18.97402656 45.27093562 22.30817036 1074 71 0 1.00000000 1.00000000 1.00000000
H 18.92095898 46.65502482 23.56215297 1075 71 0 1.00000000 1.00000000 1.00000000
H 19.54920952 48.31647573 21.87059677 1076 71 0 1.00000000 1.00000000 1.00000000
H 19.84967495 47.20473788 20.68193707 1077 71 0 1.00000000 1.00000000 1.00000000
H 21.57596143 45.96051805 22.14706389 1078 71 0 1.00000000 1.00000000 1.00000000
H 21.35150998 47.14672704 23.36563852 1079 71 0 1.00000000 1.00000000 1.00000000
H 22.50897441 47.67039106 20.67466057 1080 71 0 1.00000000 1.00000000 1.00000000
H 23.31726597 47.78989708 22.12625766 1081 71 0 1.00000000 1.00000000 1.00000000
H 21.83626899 49.73267746 22.91438435 1082 71 0 1.00000000 1.00000000 1.00000000
H 21.32942470 49.80137272 21.13402834 1083 71 0 1.00000000 1.00000000 1.00000000
H 23.56839332 50.11481973 20.52442042 1084 71 0 1.00000000 1.00000000 1.00000000
H 24.17695844 49.75411436 22.22153426 1085 71 0 1.00000000 1.00000000 1.00000000
H 23.33326834 51.45302729 21.78443314 1086 71 0 1.00000000 1.00000000 1.00000000
C 9.71802177 25.53648843 40.39831674 1087 72 0 0.56500000 0.56500000 0.56500000
C 8.72228438 26.12523574 41.40669508 1088 72 0 0.56500000 0.56500000 0.56500000
C 7.52016202 26.68977455 40.68718819 1089 72 0 0.56500000 0.56500000 0.56500000
C 6.49678046 25.62381402 40.23961869 1090 72 0 0.56500000 0.56500000 0.56500000
C 5.76760893 24.68180917 41.27126587 1091 72 0 0.56500000 0.56500000 0.56500000
C 4.85069011 23.71679892 40.58074878 1092 72 0 0.56500000 0.56500000 0.56500000
C 4.45010264 22.61524193 41.66663214 1093 72 0 0.56500000 0.56500000 0.56500000
H 9.36990310 24.74551126 39.80326202 1094 72 0 1.00000000 1.00000000 1.00000000
H 10.60577999 25.12891913 40.84012656 1095 72 0 1.00000000 1.00000000 1.00000000
H 10.02363615 26.38018053 39.70795057 1096 72 0 1.00000000 1.00000000 1.00000000
H 9.18025231 26.87819391 42.02809641 1097 72 0 1.00000000 1.00000000 1.00000000
H 8.32815924 25.39387329 42.06206131 1098 72 0 1.00000000 1.00000000 1.00000000
H 7.87880376 27.29428947 39.76954931 1099 72 0 1.00000000 1.00000000 1.00000000
H 7.00969026 27.43182792 41.29853417 1100 72 0 1.00000000 1.00000000 1.00000000
H 6.99542489 24.90727832 39.47962598 1101 72 0 1.00000000 1.00000000 1.00000000
H 5.67699175 26.13304332 39.61370719 1102 72 0 1.00000000 1.00000000 1.00000000
H 5.20306858 25.31606838 42.02380801 1103 72 0 1.00000000 1.00000000 1.00000000
H 6.50576499 24.10538252 41.77817076 1104 72 0 1.00000000 1.00000000 1.00000000
H 5.41800482 23.23274299 39.73453309 1105 72 0 1.00000000 1.00000000 1.00000000
H 3.97094791 24.30537678 40.25348112 1106 72 0 1.00000000 1.00000000 1.00000000
H 3.70619108 21.92635446 41.38891415 1107 72 0 1.00000000 1.00000000 1.00000000
H 4.23572756 23.20284465 42.53105682 1108 72 0 1.00000000 1.00000000 1.00000000
H 5.35308926 22.07161949 41.93446554 1109 72 0 1.00000000 1.00000000 1.00000000
C 2.92354996 43.68945965 33.11276320 1110 73 0 0.56500000 0.56500000 0.56500000
C 2.45741032 44.37121432 31.88824472 1111 73 0 0.56500000 0.56500000 0.56500000
C 3.62464168 44.93656378 31.01801385 1112 73 0 0.56500000 0.56500000 0.56500000
C 3.10153682 45.61916026 29.75745489 1113 73 0 0.56500000 0.56500000 0.56500000
C 2.74791772 47.11883480 29.97703434 1114 73 0 0.56500000 0.56500000 0.56500000
C 2.20788473 47.84388653 28.75094075 1115 73 0 0.56500000 0.56500000 0.56500000
C 1.48218537 49.15667841 29.15715715 1116 73 0 0.56500000 0.56500000 0.56500000
H 2.02267747 43.30702713 33.66669339 1117 73 0 1.00000000 1.00000000 1.00000000
H 3.47735601 44.33330290 33.81671090 1118 73 0 1.00000000 1.00000000 1.00000000
H 3.66720502 42.95937654 32.80254277 1119 73 0 1.00000000 1.00000000 1.00000000
H 1.80394010 45.25761504 32.08828783 1120 73 0 1.00000000 1.00000000 1.00000000
H 1.89389727 43.60992163 31.19254703 1121 73 0 1.00000000 1.00000000 1.00000000
H 4.36886445 44.20301984 30.85238239 1122 73 0 1.00000000 1.00000000 1.00000000
H 4.14143237 45.69998547 31.65800283 1123 73 0 1.00000000 1.00000000 1.00000000
H 2.22090609 45.11089705 29.39615588 1124 73 0 1.00000000 1.00000000 1.00000000
H 3.72789831 45.60104687 28.93041802 1125 73 0 1.00000000 1.00000000 1.00000000
H 3.58501541 47.50986679 30.53291758 1126 73 0 1.00000000 1.00000000 1.00000000
H 1.96551012 47.07726505 30.73039633 1127 73 0 1.00000000 1.00000000 1.00000000
H 1.59324409 47.09003712 28.17209860 1128 73 0 1.00000000 1.00000000 1.00000000
H 2.95839272 48.12234948 28.06653937 1129 73 0 1.00000000 1.00000000 1.00000000
H 1.27155824 49.75470961 28.26071581 1130 73 0 1.00000000 1.00000000 1.00000000
H 2.18247866 49.87842734 29.68131991 1131 73 0 1.00000000 1.00000000 1.00000000
H 0.57201018 49.00219936 29.76084993 1132 73 0 1.00000000 1.00000000 1.00000000
C 22.72502685 40.11899770 39.82371974 1133 74 0 0.56500000 0.56500000 0.56500000
C 24.21914456 40.23836047 39.90510183 1134 74 0 0.56500000 0.56500000 0.56500000
C 24.86785584 38.85591383 40.08172256 1135 74 0 0.56500000 0.56500000 0.56500000
C 24.69474262 37.68539617 38.99665394 1136 74 0 0.56500000 0.56500000 0.56500000
C 25.65188572 36.56474398 39.08996229 1137 74 0 0.56500000 0.56500000 0.56500000
C 27.10824770 36.92542252 38.64003600 1138 74 0 0.56500000 0.56500000 0.56500000
C 28.01351249 35.68841465 38.60135989 1139 74 0 0.56500000 0.56500000 0.56500000
H 22.17112401 39.74675487 38.89248943 1140 74 0 1.00000000 1.00000000 1.00000000
H 22.29491122 41.12282971 40.02406244 1141 74 0 1.00000000 1.00000000 1.00000000
H 22.48056073 39.51067244 40.67456373 1142 74 0 1.00000000 1.00000000 1.00000000
H 24.42127498 40.81561068 40.78675447 1143 74 0 1.00000000 1.00000000 1.00000000
H 24.64114040 40.60529504 38.94489414 1144 74 0 1.00000000 1.00000000 1.00000000
H 24.67057034 38.38806967 41.05063708 1145 74 0 1.00000000 1.00000000 1.00000000
H 25.97251910 38.98078150 40.07779346 1146 74 0 1.00000000 1.00000000 1.00000000
H 24.79597778 38.15884049 38.03636432 1147 74 0 1.00000000 1.00000000 1.00000000
H 23.62942649 37.29312153 39.01770577 1148 74 0 1.00000000 1.00000000 1.00000000
H 25.32960276 35.70655118 38.46845943 1149 74 0 1.00000000 1.00000000 1.00000000
H 25.65809078 36.17669487 40.17621348 1150 74 0 1.00000000 1.00000000 1.00000000
H 27.66362325 37.72802518 39.28805061 1151 74 0 1.00000000 1.00000000 1.00000000
H 27.20823661 37.29866818 37.65089694 1152 74 0 1.00000000 1.00000000 1.00000000
H 28.92381198 35.92898952 37.97389244 1153 74 0 1.00000000 1.00000000 1.00000000
H 27.57602593 34.79691935 38.10317722 1154 74 0 1.00000000 1.00000000 1.00000000
H 28.30183072 35.38076618 39.57957807 1155 74 0 1.00000000 1.00000000 1.00000000
C 37.96703370 28.12662607 28.09319262 1156 75 0 0.56500000 0.56500000 0.56500000
C 37.45307917 26.71957381 27.80242475 1157 75 0 0.56500000 0.56500000 0.56500000
C 37.59467888 25.67011188 28.94063679 1158 75 0 0.56500000 0.56500000 0.56500000
C 37.03144863 24.33463931 28.47147729 1159 75 0 0.56500000 0.56500000 0.56500000
C 37.58121903 23.26209155 29.42129280 1160 75 0 0.56500000 0.56500000 0.56500000
C 37.55424476 21.87206072 28.81471290 1161 75 0 0.56500000 0.56500000 0.56500000
C 36.16545078 21.20640621 28.54493713 1162 75 0 0.56500000 0.56500000 0.56500000
H 37.73102487 28.81340241 27.20246210 1163 75 0 1.00000000 1.00000000 1.00000000
H 39.10309397 28.04552230 28.19921964 1164 75 0 1.00000000 1.00000000 1.00000000
H 37.52853710 28.66184753 28.96748626 1165 75 0 1.00000000 1.00000000 1.00000000
H 38.04939472 26.29671476 26.98752589 1166 75 0 1.00000000 1.00000000 1.00000000
H 36.42421816 26.72468423 27.52242521 1167 75 0 1.00000000 1.00000000 1.00000000
H 37.27504863 25.98510102 29.92690133 1168 75 0 1.00000000 1.00000000 1.00000000
H 38.68409383 25.45020453 29.07004054 1169 75 0 1.00000000 1.00000000 1.00000000
H 37.39947602 24.11384107 27.47351457 1170 75 0 1.00000000 1.00000000 1.00000000
H 35.91911064 24.35378675 28.63145352 1171 75 0 1.00000000 1.00000000 1.00000000
H 37.10770368 23.34626681 30.37494010 1172 75 0 1.00000000 1.00000000 1.00000000
H 38.66627966 23.53234164 29.65330334 1173 75 0 1.00000000 1.00000000 1.00000000
H 38.25074070 21.22374325 29.39685176 1174 75 0 1.00000000 1.00000000 1.00000000
H 37.88755620 21.85329293 27.80254571 1175 75 0 1.00000000 1.00000000 1.00000000
H 35.54919783 21.89006774 27.95322478 1176 75 0 1.00000000 1.00000000 1.00000000
H 35.56192075 21.21673862 29.53641073 1177 75 0 1.00000000 1.00000000 1.00000000
H 36.22080056 20.19760326 28.16050915 1178 75 0 1.00000000 1.00000000 1.00000000
C 28.14101556 13.26093030 38.78301040 1179 76 0 0.56500000 0.56500000 0.56500000
C 27.63332300 13.10045068 37.37974915 1180 76 0 0.56500000 0.56500000 0.56500000
C 26.10028159 13.33307566 37.23525666 1181 76 0 0.56500000 0.56500000 0.56500000
C 25.51880202 13.23491508 35.83645974 1182 76 0 0.56500000 0.56500000 0.56500000
C 25.99718938 14.29367527 34.84721876 1183 76 0 0.56500000 0.56500000 0.56500000
C 25.34732091 14.38357043 33.44884552 1184 76 0 0.56500000 0.56500000 0.56500000
C 25.51396552 13.00227890 32.74589607 1185 76 0 0.56500000 0.56500000 0.56500000
H 29.19277149 13.48711971 38.82785507 1186 76 0 1.00000000 1.00000000 1.00000000
H 28.10242133 12.29301805 39.34282982 1187 76 0 1.00000000 1.00000000 1.00000000
H 27.53707674 14.00813414 39.29593506 1188 76 0 1.00000000 1.00000000 1.00000000
H 27.89034770 12.05000158 36.98785259 1189 76 0 1.00000000 1.00000000 1.00000000
H 28.22538367 13.85773472 36.83244586 1190 76 0 1.00000000 1.00000000 1.00000000
H 25.77017240 14.24960814 37.67618103 1191 76 0 1.00000000 1.00000000 1.00000000
H 25.56171460 12.60897437 37.83389719 1192 76 0 1.00000000 1.00000000 1.00000000
H 24.44766649 13.32946722 35.96755304 1193 76 0 1.00000000 1.00000000 1.00000000
H 25.73447349 12.19913405 35.43506087 1194 76 0 1.00000000 1.00000000 1.00000000
H 27.09506398 14.08417013 34.82908720 1195 76 0 1.00000000 1.00000000 1.00000000
H 26.11234281 15.30887272 35.36152262 1196 76 0 1.00000000 1.00000000 1.00000000
H 25.81982900 15.10831523 32.89003885 1197 76 0 1.00000000 1.00000000 1.00000000
H 24.31305369 14.65626402 33.53645925 1198 76 0 1.00000000 1.00000000 1.00000000
H 26.60479499 12.76082478 32.53853206 1199 76 0 1.00000000 1.00000000 1.00000000
H 25.07318393 13.09431384 31.75918378 1200 76 0 1.00000000 1.00000000 1.00000000
H 25.18688293 12.14297451 33.34470820 1201 76 0 1.00000000 1.00000000 1.00000000
C 27.95239191 5.78124367 13.06597034 1202 77 0 0.56500000 0.56500000 0.56500000
C 29.36852505 6.18649630 12.85889930 1203 77 0 0.56500000 0.56500000 0.56500000
C 29.77807671 7.43312162 13.84781264 1204 77 0 0.56500000 0.56500000 0.56500000
C 29.67116640 7.00090993 15.29174697 1205 77 0 0.56500000 0.56500000 0.56500000
C 29.03146570 7.90926145 16.31911545 1206 77 0 0.56500000 0.56500000 0.56500000
C 28.92442141 7.28446775 17.69014447 1207 77 0 0.56500000 0.56500000 0.56500000
C 28.34126009 8.26523580 18.76610157 1208 77 0 0.56500000 0.56500000 0.56500000
H 27.82443452 5.42955661 14.12120295 1209 77 0 1.00000000 1.00000000 1.00000000
H 27.77553099 4.84937611 12.46179043 1210 77 0 1.00000000 1.00000000 1.00000000
H 27.25997998 6.64391010 12.82851561 1211 77 0 1.00000000 1.00000000 1.00000000
H 29.51074384 6.50839944 11.80666887 1212 77 0 1.00000000 1.00000000 1.00000000
H 30.10050798 5.38181319 13.05037719 1213 77 0 1.00000000 1.00000000 1.00000000
H 29.02001602 8.25470045 13.61290004 1214 77 0 1.00000000 1.00000000 1.00000000
H 30.71471515 7.98225305 13.77647930 1215 77 0 1.00000000 1.00000000 1.00000000
H 30.65650998 6.79780499 15.59365579 1216 77 0 1.00000000 1.00000000 1.00000000
H 29.09537235 6.09590180 15.34359825 1217 77 0 1.00000000 1.00000000 1.00000000
H 27.98974265 8.19466837 15.95762997 1218 77 0 1.00000000 1.00000000 1.00000000
H 29.54792392 8.86252028 16.46410285 1219 77 0 1.00000000 1.00000000 1.00000000
H 29.89056620 6.88518431 18.01362302 1220 77 0 1.00000000 1.00000000 1.00000000
H 28.23210198 6.41677315 17.70010466 1221 77 0 1.00000000 1.00000000 1.00000000
H 28.81100758 8.05359380 19.69233496 1222 77 0 1.00000000 1.00000000 1.00000000
H 27.17691206 8.20440953 18.82314300 1223 77 0 1.00000000 1.00000000 1.00000000
H 28.48506450 9.34093484 18.60288804 1224 77 0 1.00000000 1.00000000 1.00000000
C 32.31605815 50.44868833 -3.95032653 1225 78 0 0.56500000 0.56500000 0.56500000
C 33.03099216 49.87594407 -5.17657790 1226 78 0 0.56500000 0.56500000 0.56500000
C 32.15915111 49.80568825 -6.42179520 1227 78 0 0.56500000 0.56500000 0.56500000
C 31.26208167 48.51168376 -6.37191831 1228 78 0 0.56500000 0.56500000 0.56500000
C 30.32377368 48.62889022 -7.52599681 1229 78 0 0.56500000 0.56500000 0.56500000
C 29.29575455 47.44530523 -7.71200477 1230 78 0 0.56500000 0.56500000 0.56500000
C 28.14242556 47.95301536 -8.57948943 1231 78 0 0.56500000 0.56500000 0.56500000
H 31.95030551 51.47198386 -4.24800801 1232 78 0 1.00000000 1.00000000 1.00000000
H 32.95361215 50.58692670 -3.04148227 1233 78 0 1.00000000 1.00000000 1.00000000
H 31.41661379 49.91853183 -3.61598411 1234 78 0 1.00000000 1.00000000 1.00000000
H 33.42047858 48.84905444 -4.95432346 1235 78 0 1.00000000 1.00000000 1.00000000
H 33.90429636 50.57294191 -5.35036204 1236 78 0 1.00000000 1.00000000 1.00000000
H 32.80514905 49.80643466 -7.34012929 1237 78 0 1.00000000 1.00000000 1.00000000
H 31.47404668 50.67707521 -6.47397087 1238 78 0 1.00000000 1.00000000 1.00000000
H 30.76375102 48.45247718 -5.38688448 1239 78 0 1.00000000 1.00000000 1.00000000
H 31.91843154 47.62640418 -6.43713544 1240 78 0 1.00000000 1.00000000 1.00000000
H 30.88668459 48.73315133 -8.49927606 1241 78 0 1.00000000 1.00000000 1.00000000
H 29.76192487 49.50130396 -7.36485118 1242 78 0 1.00000000 1.00000000 1.00000000
H 28.92990653 47.10665887 -6.74436672 1243 78 0 1.00000000 1.00000000 1.00000000
H 29.82293944 46.56985639 -8.14860913 1244 78 0 1.00000000 1.00000000 1.00000000
H 27.82494019 48.95835020 -8.12692251 1245 78 0 1.00000000 1.00000000 1.00000000
H 27.35913387 47.15639476 -8.81900677 1246 78 0 1.00000000 1.00000000 1.00000000
H 28.41229198 48.23976089 -9.61833987 1247 78 0 1.00000000 1.00000000 1.00000000
C 33.59078567 49.93514530 10.76775039 1248 79 0 0.56500000 0.56500000 0.56500000
C 34.65806330 48.81999972 10.95825937 1249 79 0 0.56500000 0.56500000 0.56500000
C 34.05783541 47.37164191 11.00156527 1250 79 0 0.56500000 0.56500000 0.56500000
C 34.93109591 46.42587153 11.77969897 1251 79 0 0.56500000 0.56500000 0.56500000
C 36.40329526 46.53469018 11.41820369 1252 79 0 0.56500000 0.56500000 0.56500000
C 37.18819850 45.60098922 12.26100775 1253 79 0 0.56500000 0.56500000 0.56500000
C 38.71949367 45.61582100 11.96937399 1254 79 0 0.56500000 0.56500000 0.56500000
H 33.14250741 50.11919509 11.72007124 1255 79 0 1.00000000 1.00000000 1.00000000
H 32.79811659 49.62635136 10.14826851 1256 79 0 1.00000000 1.00000000 1.00000000
H 34.00680393 50.90949467 10.53256311 1257 79 0 1.00000000 1.00000000 1.00000000
H 35.15250491 48.98319464 11.90426681 1258 79 0 1.00000000 1.00000000 1.00000000
H 35.48554688 48.89235614 10.18910820 1259 79 0 1.00000000 1.00000000 1.00000000
H 33.77141303 47.06034526 9.93286419 1260 79 0 1.00000000 1.00000000 1.00000000
H 33.09012687 47.37016369 11.55877293 1261 79 0 1.00000000 1.00000000 1.00000000
H 34.64050361 45.35513479 11.65483763 1262 79 0 1.00000000 1.00000000 1.00000000
H 34.72804370 46.64681104 12.83421621 1263 79 0 1.00000000 1.00000000 1.00000000
H 36.88280638 47.53589024 11.62172326 1264 79 0 1.00000000 1.00000000 1.00000000
H 36.53426965 46.41311061 10.32590974 1265 79 0 1.00000000 1.00000000 1.00000000
H 36.85901723 44.59035650 12.12178269 1266 79 0 1.00000000 1.00000000 1.00000000
H 37.06452043 45.76801007 13.30365185 1267 79 0 1.00000000 1.00000000 1.00000000
H 38.99831616 45.37121288 10.93225179 1268 79 0 1.00000000 1.00000000 1.00000000
H 39.32198778 45.12634519 12.73380260 1269 79 0 1.00000000 1.00000000 1.00000000
H 39.15655088 46.71409094 12.10339052 1270 79 0 1.00000000 1.00000000 1.00000000
C 47.97184002 12.68425415 -2.65518708 1271 80 0 0.56500000 0.56500000 0.56500000
C 47.45607988 11.29843205 -2.59599589 1272 80 0 0.56500000 0.56500000 0.56500000
C 47.42238869 10.69798603 -1.16229969 1273 80 0 0.56500000 0.56500000 0.56500000
C 46.79045331 11.60561036 -0.05731706 1274 80 0 0.56500000 0.56500000 0.56500000
C 46.79577481 10.94615181 1.39468425 1275 80 0 0.56500000 0.56500000 0.56500000
C 46.57816987 11.80361958 2.62355378 1276 80 0 0.56500000 0.56500000 0.56500000
C 46.50185071 10.88766307 3.88425438 1277 80 0 0.56500000 0.56500000 0.56500000
H 48.97416516 12.88555415 -2.20172714 1278 80 0 1.00000000 1.00000000 1.00000000
H 47.36834086 13.42078485 -2.17006562 1279 80 0 1.00000000 1.00000000 1.00000000
H 48.07292982 13.05747998 -3.68527346 1280 80 0 1.00000000 1.00000000 1.00000000
H 48.09022208 10.64843311 -3.13791716 1281 80 0 1.00000000 1.00000000 1.00000000
H 46.45961050 11.21080677 -3.13761761 1282 80 0 1.00000000 1.00000000 1.00000000
H 48.40832635 10.61633280 -0.65521022 1283 80 0 1.00000000 1.00000000 1.00000000
H 46.94202850 9.77051056 -1.17179511 1284 80 0 1.00000000 1.00000000 1.00000000
H 45.73010193 11.77079212 -0.25386910 1285 80 0 1.00000000 1.00000000 1.00000000
H 47.21056812 12.61002515 -0.15037002 1286 80 0 1.00000000 1.00000000 1.00000000
H 47.76636690 10.40165487 1.50245733 1287 80 0 1.00000000 1.00000000 1.00000000
H 45.97615367 10.21114494 1.25568623 1288 80 0 1.00000000 1.00000000 1.00000000
H 45.65636016 12.41938121 2.47583426 1289 80 0 1.00000000 1.00000000 1.00000000
H 47.36789377 12.53320142 2.72484926 1290 80 0 1.00000000 1.00000000 1.00000000
H 47.46569594 10.48701603 4.20257030 1291 80 0 1.00000000 1.00000000 1.00000000
H 45.77204178 10.04190719 3.63738152 1292 80 0 1.00000000 1.00000000 1.00000000
H 46.03921543 11.33982098 4.77047349 1293 80 0 1.00000000 1.00000000 1.00000000
C 33.10842288 37.69739663 17.33147215 1294 81 0 0.56500000 0.56500000 0.56500000
C 34.09674973 37.48791794 16.17094718 1295 81 0 0.56500000 0.56500000 0.56500000
C 33.49586046 37.35210321 14.81187853 1296 81 0 0.56500000 0.56500000 0.56500000
C 34.37264674 37.01786456 13.64388504 1297 81 0 0.56500000 0.56500000 0.56500000
C 34.58250823 35.50817676 13.45598177 1298 81 0 0.56500000 0.56500000 0.56500000
C 35.11274298 35.09133156 12.08064814 1299 81 0 0.56500000 0.56500000 0.56500000
C 35.55282863 33.67406962 12.10433097 1300 81 0 0.56500000 0.56500000 0.56500000
H 32.34710691 36.96172307 17.34300129 1301 81 0 1.00000000 1.00000000 1.00000000
H 32.65543334 38.62401928 17.07187793 1302 81 0 1.00000000 1.00000000 1.00000000
H 33.71027814 37.65882698 18.24119285 1303 81 0 1.00000000 1.00000000 1.00000000
H 34.61991387 36.58334266 16.44305270 1304 81 0 1.00000000 1.00000000 1.00000000
H 34.83209638 38.24463472 16.18169890 1305 81 0 1.00000000 1.00000000 1.00000000
H 33.14663603 38.32596246 14.62083222 1306 81 0 1.00000000 1.00000000 1.00000000
H 32.61585043 36.69971598 14.83863545 1307 81 0 1.00000000 1.00000000 1.00000000
H 35.35802646 37.51667192 13.74831902 1308 81 0 1.00000000 1.00000000 1.00000000
H 33.91644234 37.44674539 12.68148089 1309 81 0 1.00000000 1.00000000 1.00000000
H 33.59884515 35.01725713 13.52806870 1310 81 0 1.00000000 1.00000000 1.00000000
H 35.06742486 35.05463087 14.32446938 1311 81 0 1.00000000 1.00000000 1.00000000
H 35.94735141 35.72368604 11.81376418 1312 81 0 1.00000000 1.00000000 1.00000000
H 34.31765997 35.29227852 11.36607198 1313 81 0 1.00000000 1.00000000 1.00000000
H 34.68584810 32.97432505 12.33976992 1314 81 0 1.00000000 1.00000000 1.00000000
H 36.37336642 33.51299968 12.80136003 1315 81 0 1.00000000 1.00000000 1.00000000
H 35.84323595 33.39648808 11.09698200 1316 81 0 1.00000000 1.00000000 1.00000000
C 19.40131090 9.79331885 46.42077856 1317 82 0 0.56500000 0.56500000 0.56500000
C 20.53733847 9.88948537 45.43433745 1318 82 0 0.56500000 0.56500000 0.56500000
C 20.12757130 10.41645908 44.04236160 1319 82 0 0.56500000 0.56500000 0.56500000
C 19.22859713 9.50653656 43.17739118 1320 82 0 0.56500000 0.56500000 0.56500000
C 19.92718573 8.16692392 42.96473582 1321 82 0 0.56500000 0.56500000 0.56500000
C 19.22478822 7.27983878 41.95192579 1322 82 0 0.56500000 0.56500000 0.56500000
C 19.15765992 7.75709935 40.50955818 1323 82 0 0.56500000 0.56500000 0.56500000
H 18.74158989 8.99147278 45.96344294 1324 82 0 1.00000000 1.00000000 1.00000000
H 18.82035383 10.75105576 46.43662484 1325 82 0 1.00000000 1.00000000 1.00000000
H 19.66620902 9.57830015 47.52723944 1326 82 0 1.00000000 1.00000000 1.00000000
H 21.00627694 8.93681039 45.36504882 1327 82 0 1.00000000 1.00000000 1.00000000
H 21.20295309 10.59263353 45.89871583 1328 82 0 1.00000000 1.00000000 1.00000000
H 21.06873859 10.58829470 43.43531334 1329 82 0 1.00000000 1.00000000 1.00000000
H 19.58901753 11.33876821 44.22562279 1330 82 0 1.00000000 1.00000000 1.00000000
H 19.03120111 9.93977945 42.23317959 1331 82 0 1.00000000 1.00000000 1.00000000
H 18.20867533 9.39647652 43.60330444 1332 82 0 1.00000000 1.00000000 1.00000000
H 19.96406385 7.59931877 43.89433232 1333 82 0 1.00000000 1.00000000 1.00000000
H 20.94519765 8.30338446 42.70177317 1334 82 0 1.00000000 1.00000000 1.00000000
H 18.22213836 7.03570915 42.28394412 1335 82 0 1.00000000 1.00000000 1.00000000
H 19.65572750 6.27663168 41.98776939 1336 82 0 1.00000000 1.00000000 1.00000000
H 18.88497546 8.82247318 40.41595302 1337 82 0 1.00000000 1.00000000 1.00000000
H 18.39173749 7.25425782 39.93512260 1338 82 0 1.00000000 1.00000000 1.00000000
H 20.09423887 7.66048908 40.03784833 1339 82 0 1.00000000 1.00000000 1.00000000
C 24.56136371 4.95724307 29.01333647 1340 83 0 0.56500000 0.56500000 0.56500000
C 25.47331797 6.11682885 29.38480921 1341 83 0 0.56500000 0.56500000 0.56500000
C 26.12956617 5.78220213 30.74141993 1342 83 0 0.56500000 0.56500000 0.56500000
C 27.02722599 6.83371527 31.31196251 1343 83 0 0.56500000 0.56500000 0.56500000
C 27.48501030 6.71101191 32.76742864 1344 83 0 0.56500000 0.56500000 0.56500000
C 28.76032740 5.87524980 32.91495952 1345 83 0 0.56500000 0.56500000 0.56500000
C 29.19780423 5.84388949 34.38311611 1346 83 0 0.56500000 0.56500000 0.56500000
H 25.09236360 3.95009225 28.78237968 1347 83 0 1.00000000 1.00000000 1.00000000
H 23.98465962 5.15177204 28.04564574 1348 83 0 1.00000000 1.00000000 1.00000000
H 23.93401556 4.70874425 29.83612209 1349 83 0 1.00000000 1.00000000 1.00000000
H 24.82032693 7.04372948 29.46072585 1350 83 0 1.00000000 1.00000000 1.00000000
H 26.25535502 6.20206245 28.60584487 1351 83 0 1.00000000 1.00000000 1.00000000
H 26.64376498 4.77647059 30.75127925 1352 83 0 1.00000000 1.00000000 1.00000000
H 25.32963671 5.65471596 31.44278013 1353 83 0 1.00000000 1.00000000 1.00000000
H 26.57658565 7.76012230 31.28381336 1354 83 0 1.00000000 1.00000000 1.00000000
H 27.93101373 6.94831255 30.73410925 1355 83 0 1.00000000 1.00000000 1.00000000
H 26.67375673 6.33286943 33.40438337 1356 83 0 1.00000000 1.00000000 1.00000000
H 27.57205960 7.66651457 33.19900208 1357 83 0 1.00000000 1.00000000 1.00000000
H 29.52302258 6.27265340 32.23381423 1358 83 0 1.00000000 1.00000000 1.00000000
H 28.61548239 4.85794275 32.53140592 1359 83 0 1.00000000 1.00000000 1.00000000
H 29.32076333 6.85071251 34.83682233 1360 83 0 1.00000000 1.00000000 1.00000000
H 30.16322734 5.20444389 34.43406734 1361 83 0 1.00000000 1.00000000 1.00000000
H 28.39720587 5.27884927 34.89025126 1362 83 0 1.00000000 1.00000000 1.00000000
C 23.46564387 50.04940056 16.47726703 1363 84 0 0.56500000 0.56500000 0.56500000
C 23.09580074 50.31483251 15.02432786 1364 84 0 0.56500000 0.56500000 0.56500000
C 22.62412829 49.11265513 14.21818586 1365 84 0 0.56500000 0.56500000 0.56500000
C 22.45747958 49.51145239 12.75362937 1366 84 0 0.56500000 0.56500000 0.56500000
C 22.12717028 48.30528650 11.81272257 1367 84 0 0.56500000 0.56500000 0.56500000
C 20.70979972 47.83741455 11.82253099 1368 84 0 0.56500000 0.56500000 0.56500000
C 20.43695428 46.59167869 10.91101481 1369 84 0 0.56500000 0.56500000 0.56500000
H 22.53786540 49.70023739 17.06050462 1370 84 0 1.00000000 1.00000000 1.00000000
H 23.93985501 50.94182843 16.99899603 1371 84 0 1.00000000 1.00000000 1.00000000
H 24.28171326 49.27660128 16.56741913 1372 84 0 1.00000000 1.00000000 1.00000000
H 24.04581972 50.72578909 14.52193892 1373 84 0 1.00000000 1.00000000 1.00000000
H 22.34357231 51.09481512 14.91246488 1374 84 0 1.00000000 1.00000000 1.00000000
H 21.63983460 48.65088544 14.61996851 1375 84 0 1.00000000 1.00000000 1.00000000
H 23.39437923 48.30306126 14.24280838 1376 84 0 1.00000000 1.00000000 1.00000000
H 23.47186569 49.92574406 12.44585723 1377 84 0 1.00000000 1.00000000 1.00000000
H 21.71851428 50.30948480 12.64399816 1378 84 0 1.00000000 1.00000000 1.00000000
H 22.66111796 47.43622314 12.24979908 1379 84 0 1.00000000 1.00000000 1.00000000
H 22.53903215 48.48816535 10.79736623 1380 84 0 1.00000000 1.00000000 1.00000000
H 20.01165137 48.65520329 11.53377797 1381 84 0 1.00000000 1.00000000 1.00000000
H 20.50710207 47.49969459 12.83327027 1382 84 0 1.00000000 1.00000000 1.00000000
H 19.47522998 46.15849361 10.98238299 1383 84 0 1.00000000 1.00000000 1.00000000
H 21.07139518 45.84315600 11.29990290 1384 84 0 1.00000000 1.00000000 1.00000000
H 20.66703928 46.75543733 9.88683887 1385 84 0 1.00000000 1.00000000 1.00000000
C 50.44087311 24.23058882 31.56854750 1386 85 0 0.56500000 0.56500000 0.56500000
C 51.52002651 23.55390220 30.77189902 1387 85 0 0.56500000 0.56500000 0.56500000
C 52.81453546 24.34644661 30.61379963 1388 85 0 0.56500000 0.56500000 0.56500000
C 52.84449829 25.49042984 29.66308687 1389 85 0 0.56500000 0.56500000 0.56500000
C 52.71091579 25.17554360 28.12786590 1390 85 0 0.56500000 0.56500000 0.56500000
C 52.72143801 26.48918078 27.29969092 1391 85 0 0.56500000 0.56500000 0.56500000
C 52.24424350 26.35866860 25.82417459 1392 85 0 0.56500000 0.56500000 0.56500000
H 49.97592934 25.14916012 31.08117182 1393 85 0 1.00000000 1.00000000 1.00000000
H 50.93039779 24.42570375 32.56899860 1394 85 0 1.00000000 1.00000000 1.00000000
H 49.59202181 23.63237507 31.68561034 1395 85 0 1.00000000 1.00000000 1.00000000
H 51.26972803 23.33819996 29.75651366 1396 85 0 1.00000000 1.00000000 1.00000000
H 51.73258679 22.58347249 31.14228116 1397 85 0 1.00000000 1.00000000 1.00000000
H 53.68605510 23.66464361 30.30131523 1398 85 0 1.00000000 1.00000000 1.00000000
H 53.10277810 24.74123740 31.61452763 1399 85 0 1.00000000 1.00000000 1.00000000
H 53.86795148 26.02589552 29.65530555 1400 85 0 1.00000000 1.00000000 1.00000000
H 52.17421656 26.34242993 29.93376733 1401 85 0 1.00000000 1.00000000 1.00000000
H 51.74058298 24.56149515 27.98020709 1402 85 0 1.00000000 1.00000000 1.00000000
H 53.49713495 24.48536085 27.86227138 1403 85 0 1.00000000 1.00000000 1.00000000
H 53.73664634 26.86529389 27.37802762 1404 85 0 1.00000000 1.00000000 1.00000000
H 52.00591409 27.13382800 27.88010630 1405 85 0 1.00000000 1.00000000 1.00000000
H 52.45165130 27.16220942 25.16028600 1406 85 0 1.00000000 1.00000000 1.00000000
H 51.12510739 26.25860304 25.84389900 1407 85 0 1.00000000 1.00000000 1.00000000
H 52.61811792 25.46856904 25.29009652 1408 85 0 1.00000000 1.00000000 1.00000000
C 1.23479714 48.55048529 24.24476807 1409 86 0 0.56500000 0.56500000 0.56500000
C 2.66287549 48.33387939 24.74883964 1410 86 0 0.56500000 0.56500000 0.56500000
C 3.13838798 46.90144276 24.91494383 1411 86 0 0.56500000 0.56500000 0.56500000
C 4.56993603 46.88058634 25.38847667 1412 86 0 0.56500000 0.56500000 0.56500000
C 5.22480790 45.61382941 25.91175931 1413 86 0 0.56500000 0.56500000 0.56500000
C 6.56366404 46.00727775 26.52861164 1414 86 0 0.56500000 0.56500000 0.56500000
C 7.47290187 44.83113134 26.89295182 1415 86 0 0.56500000 0.56500000 0.56500000
H 0.90336996 49.54751648 24.44229529 1416 86 0 1.00000000 1.00000000 1.00000000
H 0.48839349 47.96748017 24.81701522 1417 86 0 1.00000000 1.00000000 1.00000000
H 1.06504982 48.24136567 23.20341143 1418 86 0 1.00000000 1.00000000 1.00000000
H 2.86423716 48.88601735 25.72233696 1419 86 0 1.00000000 1.00000000 1.00000000
H 3.29717498 48.78673388 23.99786235 1420 86 0 1.00000000 1.00000000 1.00000000
H 2.91055148 46.46702513 23.93740865 1421 86 0 1.00000000 1.00000000 1.00000000
H 2.60564229 46.38600664 25.67171309 1422 86 0 1.00000000 1.00000000 1.00000000
H 4.52960080 47.59242308 26.25514594 1423 86 0 1.00000000 1.00000000 1.00000000
H 5.26887731 47.41806114 24.66891537 1424 86 0 1.00000000 1.00000000 1.00000000
H 5.31201233 44.90425561 25.10033775 1425 86 0 1.00000000 1.00000000 1.00000000
H 4.73557633 45.14513038 26.78191480 1426 86 0 1.00000000 1.00000000 1.00000000
H 6.51439798 46.71555492 27.30350025 1427 86 0 1.00000000 1.00000000 1.00000000
H 7.04024252 46.54720489 25.74228346 1428 86 0 1.00000000 1.00000000 1.00000000
H 7.66002152 44.10335513 26.08422577 1429 86 0 1.00000000 1.00000000 1.00000000
H 7.14552817 44.15115850 27.71934209 1430 86 0 1.00000000 1.00000000 1.00000000
H 8.51689144 45.20881642 27.11040425 1431 86 0 1.00000000 1.00000000 1.00000000
C 17.22307934 2.76009516 6.69653108 1432 87 0 0.56500000 0.56500000 0.56500000
C 17.24118513 3.43705359 5.27916554 1433 87 0 0.56500000 0.56500000 0.56500000
C 16.26254461 2.96090344 4.22420534 1434 87 0 0.56500000 0.56500000 0.56500000
C 14.71980246 3.10247480 4.59911137 1435 87 0 0.56500000 0.56500000 0.56500000
C 14.17914974 4.47470468 4.57706399 1436 87 0 0.56500000 0.56500000 0.56500000
C 14.15663715 5.07974162 3.20165636 1437 87 0 0.56500000 0.56500000 0.56500000
C 13.96567426 6.57678285 3.26842981 1438 87 0 0.56500000 0.56500000 0.56500000
H 17.97529075 3.28225748 7.28727176 1439 87 0 1.00000000 1.00000000 1.00000000
H 17.52800127 1.71648477 6.60704168 1440 87 0 1.00000000 1.00000000 1.00000000
H 16.30093535 2.73312211 7.25874809 1441 87 0 1.00000000 1.00000000 1.00000000
H 18.24893153 3.28894073 4.84070697 1442 87 0 1.00000000 1.00000000 1.00000000
H 17.09532709 4.49441464 5.39132508 1443 87 0 1.00000000 1.00000000 1.00000000
H 16.41583551 1.91110869 4.02876643 1444 87 0 1.00000000 1.00000000 1.00000000
H 16.41732635 3.43601836 3.23094879 1445 87 0 1.00000000 1.00000000 1.00000000
H 14.57905462 2.67621372 5.54915657 1446 87 0 1.00000000 1.00000000 1.00000000
H 14.17599352 2.36867380 3.96046889 1447 87 0 1.00000000 1.00000000 1.00000000
H 14.84695055 5.12515005 5.22433302 1448 87 0 1.00000000 1.00000000 1.00000000
H 13.22096853 4.47499265 5.02471877 1449 87 0 1.00000000 1.00000000 1.00000000
H 13.33419635 4.61197793 2.60800217 1450 87 0 1.00000000 1.00000000 1.00000000
H 15.09399157 4.74404872 2.72559070 1451 87 0 1.00000000 1.00000000 1.00000000
H 13.52147911 6.86759484 2.20561954 1452 87 0 1.00000000 1.00000000 1.00000000
H 14.88055040 7.09116072 3.37496919 1453 87 0 1.00000000 1.00000000 1.00000000
H 13.34166887 6.99733924 4.03995718 1454 87 0 1.00000000 1.00000000 1.00000000
C 15.48290305 10.19610320 34.84124336 1455 88 0 0.56500000 0.56500000 0.56500000
C 14.33271810 9.48416111 35.52050273 1456 88 0 0.56500000 0.56500000 0.56500000
C 13.33316333 10.61476087 35.82784336 1457 88 0 0.56500000 0.56500000 0.56500000
C 13.56027652 11.44653239 37.08887094 1458 88 0 0.56500000 0.56500000 0.56500000
C 12.36722246 12.29065329 37.33536009 1459 88 0 0.56500000 0.56500000 0.56500000
C 12.55459680 13.35431945 38.45426031 1460 88 0 0.56500000 0.56500000 0.56500000
C 11.24947672 14.07619781 38.65689103 1461 88 0 0.56500000 0.56500000 0.56500000
H 16.43565211 9.75339316 35.18289095 1462 88 0 1.00000000 1.00000000 1.00000000
H 15.56860576 11.25606291 34.97683683 1463 88 0 1.00000000 1.00000000 1.00000000
H 15.42330778 10.09173369 33.75120290 1464 88 0 1.00000000 1.00000000 1.00000000
H 14.63756423 8.89433330 36.35396589 1465 88 0 1.00000000 1.00000000 1.00000000
H 13.80009069 8.81643664 34.85085413 1466 88 0 1.00000000 1.00000000 1.00000000
H 12.29714992 10.11683726 35.77380524 1467 88 0 1.00000000 1.00000000 1.00000000
H 13.46519020 11.29787778 35.04473035 1468 88 0 1.00000000 1.00000000 1.00000000
H 14.39613576 12.14583610 36.94290703 1469 88 0 1.00000000 1.00000000 1.00000000
H 13.87865264 10.76092938 37.89653785 1470 88 0 1.00000000 1.00000000 1.00000000
H 11.51098275 11.66367896 37.63148116 1471 88 0 1.00000000 1.00000000 1.00000000
H 12.03640414 12.79372373 36.40326085 1472 88 0 1.00000000 1.00000000 1.00000000
H 13.33751679 14.04901225 38.19911135 1473 88 0 1.00000000 1.00000000 1.00000000
H 12.90742428 12.73917620 39.29275170 1474 88 0 1.00000000 1.00000000 1.00000000
H 10.53914555 13.26691543 38.88081280 1475 88 0 1.00000000 1.00000000 1.00000000
H 10.99564853 14.52224538 37.69155072 1476 88 0 1.00000000 1.00000000 1.00000000
H 11.17571866 14.80817278 39.55266637 1477 88 0 1.00000000 1.00000000 1.00000000
C 12.70303246 24.54780019 20.90229279 1478 89 0 0.56500000 0.56500000 0.56500000
C 12.50522608 23.33764017 21.77313209 1479 89 0 0.56500000 0.56500000 0.56500000
C 13.89339966 22.65804654 22.26440657 1480 89 0 0.56500000 0.56500000 0.56500000
C 13.87596080 21.28840827 22.76971834 1481 89 0 0.56500000 0.56500000 0.56500000
C 13.09876331 21.04612305 24.04568163 1482 89 0 0.56500000 0.56500000 0.56500000
C 12.62693805 19.62509037 24.17076158 1483 89 0 0.56500000 0.56500000 0.56500000
C 11.73069087 19.47953632 25.40678407 1484 89 0 0.56500000 0.56500000 0.56500000
H 11.67471005 24.79162413 20.46076476 1485 89 0 1.00000000 1.00000000 1.00000000
H 13.44015639 24.43270333 20.07091512 1486 89 0 1.00000000 1.00000000 1.00000000
H 12.89832343 25.43150967 21.58467086 1487 89 0 1.00000000 1.00000000 1.00000000
H 11.95298692 22.53296270 21.19123860 1488 89 0 1.00000000 1.00000000 1.00000000
H 11.78411785 23.49316007 22.57277325 1489 89 0 1.00000000 1.00000000 1.00000000
H 14.40192802 23.49805935 22.89697290 1490 89 0 1.00000000 1.00000000 1.00000000
H 14.50608392 22.66962250 21.35074894 1491 89 0 1.00000000 1.00000000 1.00000000
H 14.82708223 20.81013113 22.87058165 1492 89 0 1.00000000 1.00000000 1.00000000
H 13.29824010 20.79982729 21.94502556 1493 89 0 1.00000000 1.00000000 1.00000000
H 12.15604780 21.58395646 23.99089760 1494 89 0 1.00000000 1.00000000 1.00000000
H 13.65617840 21.47263655 24.92174556 1495 89 0 1.00000000 1.00000000 1.00000000
H 13.47239914 18.86493589 24.10681284 1496 89 0 1.00000000 1.00000000 1.00000000
H 12.03944818 19.36848735 23.29950631 1497 89 0 1.00000000 1.00000000 1.00000000
H 10.81677173 20.02235942 25.17446607 1498 89 0 1.00000000 1.00000000 1.00000000
H 12.17147458 19.95632196 26.29905317 1499 89 0 1.00000000 1.00000000 1.00000000
H 11.45936241 18.39983127 25.66611618 1500 89 0 1.00000000 1.00000000 1.00000000
C 50.62541410 19.74829534 22.13502043 1501 90 0 0.56500000 0.56500000 0.56500000
C 49.88319283 20.08580450 20.83391687 1502 90 0 0.56500000 0.56500000 0.56500000
C 50.59516800 19.63443439 19.51701864 1503 90 0 0.56500000 0.56500000 0.56500000
C 49.67332378 19.83081047 18.38748968 1504 90 0 0.56500000 0.56500000 0.56500000
C 50.13825715 19.59301773 16.94947905 1505 90 0 0.56500000 0.56500000 0.56500000
C 50.20207342 18.10660319 16.59099968 1506 90 0 0.56500000 0.56500000 0.56500000
C 50.54704329 17.78358868 15.14083862 1507 90 0 0.56500000 0.56500000 0.56500000
H 51.51112948 20.44132422 22.29218998 1508 90 0 1.00000000 1.00000000 1.00000000
H 51.01161845 18.73950166 22.32682627 1509 90 0 1.00000000 1.00000000 1.00000000
H 49.97995038 19.84242977 23.02515675 1510 90 0 1.00000000 1.00000000 1.00000000
H 49.71967153 21.19328845 20.78937783 1511 90 0 1.00000000 1.00000000 1.00000000
H 48.97129904 19.58180515 20.89944425 1512 90 0 1.00000000 1.00000000 1.00000000
H 50.93304349 18.56093990 19.65390282 1513 90 0 1.00000000 1.00000000 1.00000000
H 51.55829748 20.30223693 19.28855761 1514 90 0 1.00000000 1.00000000 1.00000000
H 49.31124213 20.84567415 18.41319217 1515 90 0 1.00000000 1.00000000 1.00000000
H 48.80795705 19.16438204 18.51089609 1516 90 0 1.00000000 1.00000000 1.00000000
H 51.13774067 19.99793922 16.73154142 1517 90 0 1.00000000 1.00000000 1.00000000
H 49.46005254 20.20043444 16.26039615 1518 90 0 1.00000000 1.00000000 1.00000000
H 49.24535736 17.70522131 16.91958622 1519 90 0 1.00000000 1.00000000 1.00000000
H 50.83174809 17.55359595 17.28364598 1520 90 0 1.00000000 1.00000000 1.00000000
H 49.93296772 18.49778134 14.49547754 1521 90 0 1.00000000 1.00000000 1.00000000
H 50.53320499 16.74831397 14.75324248 1522 90 0 1.00000000 1.00000000 1.00000000
H 51.56653385 18.13791010 14.96455803 1523 90 0 1.00000000 1.00000000 1.00000000
C 27.04269891 40.04726465 5.49653300 1524 91 0 0.56500000 0.56500000 0.56500000
C 25.70320099 40.46512465 4.79175047 1525 91 0 0.56500000 0.56500000 0.56500000
C 24.75629821 41.02730972 5.84941970 1526 91 0 0.56500000 0.56500000 0.56500000
C 23.27031886 41.05700539 5.37124499 1527 91 0 0.56500000 0.56500000 0.56500000
C 22.33712936 41.67727922 6.38228975 1528 91 0 0.56500000 0.56500000 0.56500000
C 22.67455634 43.22349056 6.68825225 1529 91 0 0.56500000 0.56500000 0.56500000
C 21.73939032 43.99725315 7.58319857 1530 91 0 0.56500000 0.56500000 0.56500000
H 27.39360739 40.72950117 6.31023976 1531 91 0 1.00000000 1.00000000 1.00000000
H 27.84521780 39.93300828 4.74356363 1532 91 0 1.00000000 1.00000000 1.00000000
H 26.95689109 39.12406596 6.05707742 1533 91 0 1.00000000 1.00000000 1.00000000
H 25.11618456 39.55660688 4.40217600 1534 91 0 1.00000000 1.00000000 1.00000000
H 25.70201796 41.26837271 3.99597268 1535 91 0 1.00000000 1.00000000 1.00000000
H 25.05497511 42.03111959 6.09409083 1536 91 0 1.00000000 1.00000000 1.00000000
H 24.81955920 40.44283585 6.74210030 1537 91 0 1.00000000 1.00000000 1.00000000
H 22.87904451 40.03374983 5.11460730 1538 91 0 1.00000000 1.00000000 1.00000000
H 23.18059753 41.61211965 4.46450285 1539 91 0 1.00000000 1.00000000 1.00000000
H 22.33346511 41.10120623 7.22631427 1540 91 0 1.00000000 1.00000000 1.00000000
H 21.35229990 41.67357433 5.91452402 1541 91 0 1.00000000 1.00000000 1.00000000
H 22.52961294 43.74123023 5.73890358 1542 91 0 1.00000000 1.00000000 1.00000000
H 23.74758230 43.28102796 7.02084691 1543 91 0 1.00000000 1.00000000 1.00000000
H 20.80942847 43.38873698 7.77909776 1544 91 0 1.00000000 1.00000000 1.00000000
H 21.48969376 44.98770826 7.26855034 1545 91 0 1.00000000 1.00000000 1.00000000
H 22.14469192 44.18677511 8.58419529 1546 91 0 1.00000000 1.00000000 1.00000000
C 33.28572735 41.05925732 13.91929848 1547 92 0 0.56500000 0.56500000 0.56500000
C 32.88573157 42.21962518 13.07452389 1548 92 0 0.56500000 0.56500000 0.56500000
C 33.46569214 43.58002539 13.49064898 1549 92 0 0.56500000 0.56500000 0.56500000
C 32.89334139 44.07671293 14.85581709 1550 92 0 0.56500000 0.56500000 0.56500000
C 33.26719841 45.50692299 15.25154953 1551 92 0 0.56500000 0.56500000 0.56500000
C 33.21792152 45.65753839 16.74620056 1552 92 0 0.56500000 0.56500000 0.56500000
C 33.45332863 47.04959665 17.27561018 1553 92 0 0.56500000 0.56500000 0.56500000
H 32.45875321 40.33086323 13.85582826 1554 92 0 1.00000000 1.00000000 1.00000000
H 33.41766089 41.32984259 14.95648963 1555 92 0 1.00000000 1.00000000 1.00000000
H 34.16827784 40.63464497 13.57246927 1556 92 0 1.00000000 1.00000000 1.00000000
H 31.74297471 42.29675805 13.16559013 1557 92 0 1.00000000 1.00000000 1.00000000
H 33.06496769 42.01562391 11.97440602 1558 92 0 1.00000000 1.00000000 1.00000000
H 33.31793181 44.31964936 12.71401096 1559 92 0 1.00000000 1.00000000 1.00000000
H 34.53292817 43.45006427 13.62673087 1560 92 0 1.00000000 1.00000000 1.00000000
H 33.18960890 43.27231429 15.56071437 1561 92 0 1.00000000 1.00000000 1.00000000
H 31.78990092 43.96139683 14.76099748 1562 92 0 1.00000000 1.00000000 1.00000000
H 32.57210792 46.22778701 14.76474049 1563 92 0 1.00000000 1.00000000 1.00000000
H 34.24756888 45.90407769 14.84762322 1564 92 0 1.00000000 1.00000000 1.00000000
H 33.88329513 44.95259655 17.20078801 1565 92 0 1.00000000 1.00000000 1.00000000
H 32.29941179 45.20943219 17.08854562 1566 92 0 1.00000000 1.00000000 1.00000000
H 33.29157576 47.08740794 18.36828028 1567 92 0 1.00000000 1.00000000 1.00000000
H 32.69867227 47.67778860 16.83178574 1568 92 0 1.00000000 1.00000000 1.00000000
H 34.43550236 47.44278473 17.07817229 1569 92 0 1.00000000 1.00000000 1.00000000
C 23.15178107 5.76310028 13.33458299 1570 93 0 0.56500000 0.56500000 0.56500000
C 21.58638794 5.58470749 13.41112761 1571 93 0 0.56500000 0.56500000 0.56500000
C 20.80410440 6.81630321 13.27689645 1572 93 0 0.56500000 0.56500000 0.56500000
C 19.31573926 6.59526190 13.40804416 1573 93 0 0.56500000 0.56500000 0.56500000
C 18.59576180 5.73902100 12.31304700 1574 93 0 0.56500000 0.56500000 0.56500000
C 18.80515314 6.34617067 10.95581062 1575 93 0 0.56500000 0.56500000 0.56500000
C 20.19412848 6.02842327 10.37190748 1576 93 0 0.56500000 0.56500000 0.56500000
H 23.49265269 6.00314098 12.29341392 1577 93 0 1.00000000 1.00000000 1.00000000
H 23.68045145 4.90805352 13.71090603 1578 93 0 1.00000000 1.00000000 1.00000000
H 23.34875472 6.71627001 13.86405600 1579 93 0 1.00000000 1.00000000 1.00000000
H 21.45808583 5.13485937 14.42959409 1580 93 0 1.00000000 1.00000000 1.00000000
H 21.31682574 4.90823025 12.61857370 1581 93 0 1.00000000 1.00000000 1.00000000
H 21.00308495 7.46705214 12.37962433 1582 93 0 1.00000000 1.00000000 1.00000000
H 21.10863453 7.48529210 14.09842633 1583 93 0 1.00000000 1.00000000 1.00000000
H 18.74103206 7.55894739 13.47390940 1584 93 0 1.00000000 1.00000000 1.00000000
H 19.17435582 6.08029559 14.37412842 1585 93 0 1.00000000 1.00000000 1.00000000
H 17.57420155 5.84424074 12.51461575 1586 93 0 1.00000000 1.00000000 1.00000000
H 18.90940941 4.69626684 12.44460820 1587 93 0 1.00000000 1.00000000 1.00000000
H 18.58732397 7.39112720 11.09864813 1588 93 0 1.00000000 1.00000000 1.00000000
H 18.08093963 5.89410306 10.25967787 1589 93 0 1.00000000 1.00000000 1.00000000
H 21.01577182 6.57951879 10.79485033 1590 93 0 1.00000000 1.00000000 1.00000000
H 20.25571683 6.21604400 9.29123407 1591 93 0 1.00000000 1.00000000 1.00000000
H 20.49813757 5.00308245 10.49332952 1592 93 0 1.00000000 1.00000000 1.00000000
C 20.20533722 33.38401327 -1.05097564 1593 94 0 0.56500000 0.56500000 0.56500000
C 21.63525434 32.82796624 -1.35344939 1594 94 0 0.56500000 0.56500000 0.56500000
C 22.78635200 33.70773770 -0.92743136 1595 94 0 0.56500000 0.56500000 0.56500000
C 22.86874148 35.11330043 -1.58448560 1596 94 0 0.56500000 0.56500000 0.56500000
C 23.91267737 35.96815482 -0.97733461 1597 94 0 0.56500000 0.56500000 0.56500000
C 23.85117273 37.48867774 -1.36576658 1598 94 0 0.56500000 0.56500000 0.56500000
C 24.69115791 37.70462854 -2.71849625 1599 94 0 0.56500000 0.56500000 0.56500000
H 20.08426282 33.41131183 0.05946451 1600 94 0 1.00000000 1.00000000 1.00000000
H 19.45460883 32.69136623 -1.34613914 1601 94 0 1.00000000 1.00000000 1.00000000
H 20.08375210 34.31925605 -1.57776945 1602 94 0 1.00000000 1.00000000 1.00000000
H 21.61852348 32.62256419 -2.44324424 1603 94 0 1.00000000 1.00000000 1.00000000
H 21.64608975 31.73461598 -0.97185629 1604 94 0 1.00000000 1.00000000 1.00000000
H 23.75215304 33.27279678 -1.06992993 1605 94 0 1.00000000 1.00000000 1.00000000
H 22.87705758 33.87750296 0.14629995 1606 94 0 1.00000000 1.00000000 1.00000000
H 21.86765083 35.58468278 -1.58760548 1607 94 0 1.00000000 1.00000000 1.00000000
H 23.21421099 35.11593792 -2.57267917 1608 94 0 1.00000000 1.00000000 1.00000000
H 24.84862900 35.42942576 -1.23514199 1609 94 0 1.00000000 1.00000000 1.00000000
H 23.90184382 35.85345560 0.11820272 1610 94 0 1.00000000 1.00000000 1.00000000
H 24.27362965 38.09945521 -0.62191289 1611 94 0 1.00000000 1.00000000 1.00000000
H 22.84918115 37.80862672 -1.49214004 1612 94 0 1.00000000 1.00000000 1.00000000
H 24.34742283 38.57376224 -3.33213411 1613 94 0 1.00000000 1.00000000 1.00000000
H 24.62343857 36.80225357 -3.32508766 1614 94 0 1.00000000 1.00000000 1.00000000
H 25.75697974 37.85167941 -2.45170649 1615 94 0 1.00000000 1.00000000 1.00000000
C 29.39978080 16.66390314 22.55467193 1616 95 0 0.56500000 0.56500000 0.56500000
C 28.06567136 15.88920342 22.17338570 1617 95 0 0.56500000 0.56500000 0.56500000
C 27.96322805 14.51900809 22.65253749 1618 95 0 0.56500000 0.56500000 0.56500000
C 28.21633229 14.26128780 24.12607523 1619 95 0 0.56500000 0.56500000 0.56500000
C 27.06735271 14.73926494 24.99955689 1620 95 0 0.56500000 0.56500000 0.56500000
C 27.26333235 14.40292404 26.46198973 1621 95 0 0.56500000 0.56500000 0.56500000
C 26.17302569 15.08127100 27.30983246 1622 95 0 0.56500000 0.56500000 0.56500000
H 29.36301225 17.73896900 22.20466764 1623 95 0 1.00000000 1.00000000 1.00000000
H 30.28610861 16.08960924 22.19515945 1624 95 0 1.00000000 1.00000000 1.00000000
H 29.49750556 16.73953134 23.65829678 1625 95 0 1.00000000 1.00000000 1.00000000
H 27.86483655 15.72040012 21.10753660 1626 95 0 1.00000000 1.00000000 1.00000000
H 27.23718357 16.50768124 22.52200763 1627 95 0 1.00000000 1.00000000 1.00000000
H 28.79708441 13.98530620 22.13374622 1628 95 0 1.00000000 1.00000000 1.00000000
H 27.03145518 14.11052685 22.28069165 1629 95 0 1.00000000 1.00000000 1.00000000
H 29.18653914 14.75947073 24.42248136 1630 95 0 1.00000000 1.00000000 1.00000000
H 28.35631041 13.14552470 24.27769963 1631 95 0 1.00000000 1.00000000 1.00000000
H 26.12855806 14.36862996 24.57062321 1632 95 0 1.00000000 1.00000000 1.00000000
H 26.90783522 15.85714702 24.87745744 1633 95 0 1.00000000 1.00000000 1.00000000
H 28.19555517 14.73423607 26.76417890 1634 95 0 1.00000000 1.00000000 1.00000000
H 27.25077230 13.29116271 26.61429708 1635 95 0 1.00000000 1.00000000 1.00000000
H 26.32807990 16.16634249 27.34370378 1636 95 0 1.00000000 1.00000000 1.00000000
H 26.35969317 14.81421783 28.37143402 1637 95 0 1.00000000 1.00000000 1.00000000
H 25.15472429 14.86497338 26.95044829 1638 95 0 1.00000000 1.00000000 1.00000000
C 30.30519307 17.51402948 6.96259582 1639 96 0 0.56500000 0.56500000 0.56500000
C 28.81196129 17.36153043 6.89550069 1640 96 0 0.56500000 0.56500000 0.56500000
C 28.19361530 17.53411871 8.29232299 1641 96 0 0.56500000 0.56500000 0.56500000
C 26.65267222 17.97654065 8.30689581 1642 96 0 0.56500000 0.56500000 0.56500000
C 26.40983650 19.02635856 9.35719773 1643 96 0 0.56500000 0.56500000 0.56500000
C 26.72007000 18.69071379 10.84624807 1644 96 0 0.56500000 0.56500000 0.56500000
C 25.94880218 19.48260333 11.84948619 1645 96 0 0.56500000 0.56500000 0.56500000
H 30.70416773 17.34954216 5.93393283 1646 96 0 1.00000000 1.00000000 1.00000000
H 30.60264941 16.71151857 7.58432455 1647 96 0 1.00000000 1.00000000 1.00000000
H 30.67411410 18.49056514 7.27624471 1648 96 0 1.00000000 1.00000000 1.00000000
H 28.67973083 16.33730315 6.47126096 1649 96 0 1.00000000 1.00000000 1.00000000
H 28.25687209 18.04138142 6.30460554 1650 96 0 1.00000000 1.00000000 1.00000000
H 28.74665909 18.28821657 8.80302880 1651 96 0 1.00000000 1.00000000 1.00000000
H 28.20058253 16.65501991 8.92279520 1652 96 0 1.00000000 1.00000000 1.00000000
H 26.09623875 17.06541650 8.40167021 1653 96 0 1.00000000 1.00000000 1.00000000
H 26.25030526 18.31260335 7.33296033 1654 96 0 1.00000000 1.00000000 1.00000000
H 25.38430101 19.28447017 9.28119820 1655 96 0 1.00000000 1.00000000 1.00000000
H 26.99492461 19.92708643 9.11789510 1656 96 0 1.00000000 1.00000000 1.00000000
H 27.79524759 18.69946692 11.07778581 1657 96 0 1.00000000 1.00000000 1.00000000
H 26.53286932 17.65965569 10.97922063 1658 96 0 1.00000000 1.00000000 1.00000000
H 24.82747063 19.38188422 11.62886879 1659 96 0 1.00000000 1.00000000 1.00000000
H 26.21400406 20.54063367 11.68041575 1660 96 0 1.00000000 1.00000000 1.00000000
H 26.17394109 19.20399666 12.89502127 1661 96 0 1.00000000 1.00000000 1.00000000
C 31.93199935 32.53441716 38.30592863 1662 97 0 0.56500000 0.56500000 0.56500000
C 32.53650188 32.81229201 36.92761777 1663 97 0 0.56500000 0.56500000 0.56500000
C 34.06796498 32.40163217 36.92070286 1664 97 0 0.56500000 0.56500000 0.56500000
C 35.01767047 33.35650967 37.58585574 1665 97 0 0.56500000 0.56500000 0.56500000
C 36.38237053 32.82048458 37.32180441 1666 97 0 0.56500000 0.56500000 0.56500000
C 37.55685523 33.67890400 37.89523905 1667 97 0 0.56500000 0.56500000 0.56500000
C 37.78797391 34.90809594 37.02196975 1668 97 0 0.56500000 0.56500000 0.56500000
H 31.96929185 31.48384156 38.51455933 1669 97 0 1.00000000 1.00000000 1.00000000
H 30.92021627 32.97669492 38.35831703 1670 97 0 1.00000000 1.00000000 1.00000000
H 32.48554833 33.05791649 39.01626992 1671 97 0 1.00000000 1.00000000 1.00000000
H 32.36641801 33.81991185 36.58036542 1672 97 0 1.00000000 1.00000000 1.00000000
H 32.07938294 32.07047646 36.21690834 1673 97 0 1.00000000 1.00000000 1.00000000
H 34.47598388 32.25768514 35.86642467 1674 97 0 1.00000000 1.00000000 1.00000000
H 34.14335461 31.39512659 37.33295356 1675 97 0 1.00000000 1.00000000 1.00000000
H 34.86011470 33.47602918 38.64023697 1676 97 0 1.00000000 1.00000000 1.00000000
H 34.87387616 34.36828893 37.14805186 1677 97 0 1.00000000 1.00000000 1.00000000
H 36.59143787 32.59665938 36.24877498 1678 97 0 1.00000000 1.00000000 1.00000000
H 36.34025493 31.79959173 37.76193911 1679 97 0 1.00000000 1.00000000 1.00000000
H 38.48910489 33.05999652 37.87245760 1680 97 0 1.00000000 1.00000000 1.00000000
H 37.33182525 33.94459649 38.92820413 1681 97 0 1.00000000 1.00000000 1.00000000
H 36.90948121 35.55074254 36.96669162 1682 97 0 1.00000000 1.00000000 1.00000000
H 38.09394778 34.65327219 36.05821237 1683 97 0 1.00000000 1.00000000 1.00000000
H 38.62218424 35.37629731 37.48488584 1684 97 0 1.00000000 1.00000000 1.00000000
C 6.72470041 15.69115334 31.06895957 1685 98 0 0.56500000 0.56500000 0.56500000
C 7.91064273 15.12580899 30.29840716 1686 98 0 0.56500000 0.56500000 0.56500000
C 9.25153785 15.66400759 30.75073451 1687 98 0 0.56500000 0.56500000 0.56500000
C 9.56645541 15.49019967 32.25578562 1688 98 0 0.56500000 0.56500000 0.56500000
C 11.03444145 15.48806749 32.61786093 1689 98 0 0.56500000 0.56500000 0.56500000
C 11.98165462 14.36276993 32.18427951 1690 98 0 0.56500000 0.56500000 0.56500000
C 13.25535481 14.23277110 32.98937546 1691 98 0 0.56500000 0.56500000 0.56500000
H 6.60401034 15.37878042 32.10713908 1692 98 0 1.00000000 1.00000000 1.00000000
H 5.78819497 15.39947082 30.61864439 1693 98 0 1.00000000 1.00000000 1.00000000
H 6.75699326 16.84014773 31.09331890 1694 98 0 1.00000000 1.00000000 1.00000000
H 7.72474484 15.25759655 29.24776014 1695 98 0 1.00000000 1.00000000 1.00000000
H 8.01899749 13.98447046 30.33246372 1696 98 0 1.00000000 1.00000000 1.00000000
H 9.38010021 16.78212320 30.43674859 1697 98 0 1.00000000 1.00000000 1.00000000
H 10.00627318 15.12358754 30.10526087 1698 98 0 1.00000000 1.00000000 1.00000000
H 8.99890402 14.61291556 32.67516515 1699 98 0 1.00000000 1.00000000 1.00000000
H 9.12505755 16.35236165 32.75680486 1700 98 0 1.00000000 1.00000000 1.00000000
H 11.13005120 15.55069333 33.70831899 1701 98 0 1.00000000 1.00000000 1.00000000
H 11.47961962 16.43663787 32.23297004 1702 98 0 1.00000000 1.00000000 1.00000000
H 12.28342915 14.42500710 31.12349458 1703 98 0 1.00000000 1.00000000 1.00000000
H 11.43733006 13.43172099 32.16731485 1704 98 0 1.00000000 1.00000000 1.00000000
H 13.82917093 15.13138471 32.90988261 1705 98 0 1.00000000 1.00000000 1.00000000
H 13.81380227 13.32927957 32.58049701 1706 98 0 1.00000000 1.00000000 1.00000000
H 13.06236673 14.08748003 34.08133187 1707 98 0 1.00000000 1.00000000 1.00000000
C 42.61858961 36.64792220 23.00195493 1708 99 0 0.56500000 0.56500000 0.56500000
C 42.25247863 37.70967949 21.99059243 1709 99 0 0.56500000 0.56500000 0.56500000
C 42.98840346 39.04932401 22.12272931 1710 99 0 0.56500000 0.56500000 0.56500000
C 42.50607421 40.02505181 21.02709817 1711 99 0 0.56500000 0.56500000 0.56500000
C 41.03718171 40.40541882 21.10952287 1712 99 0 0.56500000 0.56500000 0.56500000
C 40.65256170 41.22762139 22.44196991 1713 99 0 0.56500000 0.56500000 0.56500000
C 39.11773768 41.37406132 22.78649970 1714 99 0 0.56500000 0.56500000 0.56500000
H 41.81606000 35.83060149 22.88183428 1715 99 0 1.00000000 1.00000000 1.00000000
H 42.49305035 36.97457348 24.06784224 1716 99 0 1.00000000 1.00000000 1.00000000
H 43.60571465 36.27434051 22.84439562 1717 99 0 1.00000000 1.00000000 1.00000000
H 41.19382631 37.82357615 21.84730244 1718 99 0 1.00000000 1.00000000 1.00000000
H 42.50296429 37.38956737 20.98986330 1719 99 0 1.00000000 1.00000000 1.00000000
H 44.02301668 38.88123906 21.92082657 1720 99 0 1.00000000 1.00000000 1.00000000
H 42.93854405 39.60588742 23.09142649 1721 99 0 1.00000000 1.00000000 1.00000000
H 42.61178330 39.48080403 20.04745162 1722 99 0 1.00000000 1.00000000 1.00000000
H 43.14015842 40.93756161 21.03268960 1723 99 0 1.00000000 1.00000000 1.00000000
H 40.42773115 39.50057588 21.03390066 1724 99 0 1.00000000 1.00000000 1.00000000
H 40.73971624 40.96623523 20.24220724 1725 99 0 1.00000000 1.00000000 1.00000000
H 41.08779554 42.18455568 22.25029695 1726 99 0 1.00000000 1.00000000 1.00000000
H 41.20269846 40.59892920 23.13311549 1727 99 0 1.00000000 1.00000000 1.00000000
H 39.04702627 41.78934258 23.78611419 1728 99 0 1.00000000 1.00000000 1.00000000
H 38.66322598 40.38312160 22.93706584 1729 99 0 1.00000000 1.00000000 1.00000000
H 38.50735732 42.01066442 22.14129004 1730 99 0 1.00000000 1.00000000 1.00000000
C 23.06872286 18.27442342 32.05983660 1731 100 0 0.56500000 0.56500000 0.56500000
C 22.45923761 17.21109719 31.23011782 1732 100 0 0.56500000 0.56500000 0.56500000
C 22.85645916 17.31955174 29.76333167 1733 100 0 0.56500000 0.56500000 0.56500000
C 21.80027489 16.62004957 28.84230092 1734 100 0 0.56500000 0.56500000 0.56500000
C 21.82063250 15.09232595 29.16972922 1735 100 0 0.56500000 0.56500000 0.56500000
C 20.75938384 14.33805444 28.33004849 1736 100 0 0.56500000 0.56500000 0.56500000
C 20.43929731 13.00693061 28.95392838 1737 100 0 0.56500000 0.56500000 0.56500000
H 24.10270001 18.08152398 32.16232385 1738 100 0 1.00000000 1.00000000 1.00000000
H 22.61788202 18.25859462 32.99270645 1739 100 0 1.00000000 1.00000000 1.00000000
H 22.95145556 19.33941138 31.67116563 1740 100 0 1.00000000 1.00000000 1.00000000
H 21.39830269 17.32197840 31.29754457 1741 100 0 1.00000000 1.00000000 1.00000000
H 22.72526333 16.31342148 31.71723643 1742 100 0 1.00000000 1.00000000 1.00000000
H 23.91276123 16.79244744 29.65735841 1743 100 0 1.00000000 1.00000000 1.00000000
H 23.04763169 18.33968528 29.49724903 1744 100 0 1.00000000 1.00000000 1.00000000
H 22.16125594 16.80395059 27.81449728 1745 100 0 1.00000000 1.00000000 1.00000000
H 20.75235328 16.96345615 28.96527221 1746 100 0 1.00000000 1.00000000 1.00000000
H 21.73232647 14.90606804 30.27989348 1747 100 0 1.00000000 1.00000000 1.00000000
H 22.81584689 14.65152259 28.91652807 1748 100 0 1.00000000 1.00000000 1.00000000
H 20.99382559 14.33043739 27.22344970 1749 100 0 1.00000000 1.00000000 1.00000000
H 19.77047102 14.93075210 28.35482891 1750 100 0 1.00000000 1.00000000 1.00000000
H 20.47161016 13.16499447 30.06376615 1751 100 0 1.00000000 1.00000000 1.00000000
H 21.24095187 12.34184751 28.71102946 1752 100 0 1.00000000 1.00000000 1.00000000
H 19.58533061 12.46721094 28.60135154 1753 100 0 1.00000000 1.00000000 1.00000000
C 7.07502220 12.16172771 4.52536359 1754 101 0 0.56500000 0.56500000 0.56500000
C 6.60193034 10.99802539 3.50387731 1755 101 0 0.56500000 0.56500000 0.56500000
C 6.41895384 9.77124098 4.47373688 1756 101 0 0.56500000 0.56500000 0.56500000
C 5.94937585 8.45452686 3.83988457 1757 101 0 0.56500000 0.56500000 0.56500000
C 5.17288150 7.41184115 4.65098131 1758 101 0 0.56500000 0.56500000 0.56500000
C 5.62033483 6.99279391 5.99579501 1759 101 0 0.56500000 0.56500000 0.56500000
C 6.97942274 6.22665183 5.86454516 1760 101 0 0.56500000 0.56500000 0.56500000
H 7.94716249 11.67745808 5.02982835 1761 101 0 1.00000000 1.00000000 1.00000000
H 6.27364471 12.14261550 5.29606362 1762 101 0 1.00000000 1.00000000 1.00000000
H 7.29454531 13.10886558 4.09394808 1763 101 0 1.00000000 1.00000000 1.00000000
H 7.43908800 10.80357641 2.79074582 1764 101 0 1.00000000 1.00000000 1.00000000
H 5.61020909 11.24675390 2.92946977 1765 101 0 1.00000000 1.00000000 1.00000000
H 5.68996144 10.04428854 5.20948985 1766 101 0 1.00000000 1.00000000 1.00000000
H 7.30403345 9.59093997 5.10747703 1767 101 0 1.00000000 1.00000000 1.00000000
H 6.78159563 8.00054330 3.45730551 1768 101 0 1.00000000 1.00000000 1.00000000
H 5.22582469 8.66583422 2.99517706 1769 101 0 1.00000000 1.00000000 1.00000000
H 5.10251923 6.53569819 3.97666611 1770 101 0 1.00000000 1.00000000 1.00000000
H 4.06557361 7.70063211 4.65997467 1771 101 0 1.00000000 1.00000000 1.00000000
H 4.85605765 6.35263723 6.54622748 1772 101 0 1.00000000 1.00000000 1.00000000
H 5.82698305 7.88141561 6.68451208 1773 101 0 1.00000000 1.00000000 1.00000000
H 6.90578660 5.22432174 5.34510167 1774 101 0 1.00000000 1.00000000 1.00000000
H 7.53504451 6.02690101 6.83815916 1775 101 0 1.00000000 1.00000000 1.00000000
H 7.63460105 6.79515151 5.19043619 1776 101 0 1.00000000 1.00000000 1.00000000
C 16.33047561 11.56322409 27.82672163 1777 102 0 0.56500000 0.56500000 0.56500000
C 16.89434471 11.55876244 29.29552492 1778 102 0 0.56500000 0.56500000 0.56500000
C 15.86230954 11.87208307 30.31708135 1779 102 0 0.56500000 0.56500000 0.56500000
C 16.30426368 12.01281772 31.78740635 1780 102 0 0.56500000 0.56500000 0.56500000
C 17.39427389 13.09844483 32.00187436 1781 102 0 0.56500000 0.56500000 0.56500000
C 17.29360333 14.50800605 31.46894257 1782 102 0 0.56500000 0.56500000 0.56500000
C 18.50573116 15.27932792 31.94640171 1783 102 0 0.56500000 0.56500000 0.56500000
H 15.78056907 10.56592942 27.69594466 1784 102 0 1.00000000 1.00000000 1.00000000
H 16.98611714 11.51924164 26.97924165 1785 102 0 1.00000000 1.00000000 1.00000000
H 15.64789077 12.45346820 27.66272257 1786 102 0 1.00000000 1.00000000 1.00000000
H 17.69890245 12.33095088 29.28125357 1787 102 0 1.00000000 1.00000000 1.00000000
H 17.38145664 10.58080632 29.57458286 1788 102 0 1.00000000 1.00000000 1.00000000
H 15.06283467 11.14646013 30.31898270 1789 102 0 1.00000000 1.00000000 1.00000000
H 15.41196931 12.75578323 29.96573400 1790 102 0 1.00000000 1.00000000 1.00000000
H 16.71882706 11.04962731 32.12701070 1791 102 0 1.00000000 1.00000000 1.00000000
H 15.50200618 12.19439424 32.49605769 1792 102 0 1.00000000 1.00000000 1.00000000
H 18.40800527 12.77038647 31.54948624 1793 102 0 1.00000000 1.00000000 1.00000000
H 17.63591679 13.11386128 33.09508098 1794 102 0 1.00000000 1.00000000 1.00000000
H 16.40020214 14.98587221 31.82352278 1795 102 0 1.00000000 1.00000000 1.00000000
H 17.25919168 14.51928986 30.35604112 1796 102 0 1.00000000 1.00000000 1.00000000
H 18.58153760 16.26097741 31.49838903 1797 102 0 1.00000000 1.00000000 1.00000000
H 19.40092280 14.76849839 31.67959137 1798 102 0 1.00000000 1.00000000 1.00000000
H 18.45509800 15.50860306 33.01347857 1799 102 0 1.00000000 1.00000000 1.00000000
C 14.64842501 37.65330307 22.23348743 1800 103 0 0.56500000 0.56500000 0.56500000
C 13.92128849 38.92759690 21.62324552 1801 103 0 0.56500000 0.56500000 0.56500000
C 12.44601046 38.62591691 21.23716322 1802 103 0 0.56500000 0.56500000 0.56500000
C 12.28277760 37.42436588 20.27175793 1803 103 0 0.56500000 0.56500000 0.56500000
C 12.99137483 37.66831227 18.94866994 1804 103 0 0.56500000 0.56500000 0.56500000
C 12.89506313 36.41313610 18.03151906 1805 103 0 0.56500000 0.56500000 0.56500000
C 13.00843497 36.87397725 16.56695089 1806 103 0 0.56500000 0.56500000 0.56500000
H 15.60028065 37.90671199 22.75739193 1807 103 0 1.00000000 1.00000000 1.00000000
H 14.82234994 36.87335124 21.43200239 1808 103 0 1.00000000 1.00000000 1.00000000
H 13.90944502 37.26092906 22.89117263 1809 103 0 1.00000000 1.00000000 1.00000000
H 14.62025227 39.29317287 20.81160171 1810 103 0 1.00000000 1.00000000 1.00000000
H 13.83316619 39.87706060 22.23169322 1811 103 0 1.00000000 1.00000000 1.00000000
H 12.13239366 39.60625731 20.81980017 1812 103 0 1.00000000 1.00000000 1.00000000
H 11.79405980 38.42834141 22.11280129 1813 103 0 1.00000000 1.00000000 1.00000000
H 11.18111700 37.28537521 20.15375123 1814 103 0 1.00000000 1.00000000 1.00000000
H 12.65056705 36.54882922 20.79594597 1815 103 0 1.00000000 1.00000000 1.00000000
H 14.10500067 37.80428981 19.16772431 1816 103 0 1.00000000 1.00000000 1.00000000
H 12.52156425 38.47907794 18.38131872 1817 103 0 1.00000000 1.00000000 1.00000000
H 12.00485144 35.81404994 18.22754691 1818 103 0 1.00000000 1.00000000 1.00000000
H 13.69689276 35.70362353 18.31378497 1819 103 0 1.00000000 1.00000000 1.00000000
H 13.22801024 35.97974163 15.91385500 1820 103 0 1.00000000 1.00000000 1.00000000
H 13.77562136 37.64311589 16.46512441 1821 103 0 1.00000000 1.00000000 1.00000000
H 11.99893708 37.29198374 16.26007806 1822 103 0 1.00000000 1.00000000 1.00000000
C 13.10960068 12.64264892 20.19131381 1823 104 0 0.56500000 0.56500000 0.56500000
C 12.66372919 12.46297156 21.65842668 1824 104 0 0.56500000 0.56500000 0.56500000
C 12.16979979 13.68102960 22.35673020 1825 104 0 0.56500000 0.56500000 0.56500000
C 11.87523513 13.36555903 23.84454606 1826 104 0 0.56500000 0.56500000 0.56500000
C 11.65843231 14.66737224 24.66707526 1827 104 0 0.56500000 0.56500000 0.56500000
C 10.76620037 14.39218162 25.84141365 1828 104 0 0.56500000 0.56500000 0.56500000
C 10.40942555 15.63163387 26.60350075 1829 104 0 0.56500000 0.56500000 0.56500000
H 14.06875754 13.17263490 20.04485155 1830 104 0 1.00000000 1.00000000 1.00000000
H 12.39607983 13.35236358 19.69757088 1831 104 0 1.00000000 1.00000000 1.00000000
H 12.93103013 11.76396085 19.56026666 1832 104 0 1.00000000 1.00000000 1.00000000
H 13.56433418 12.12937527 22.23942304 1833 104 0 1.00000000 1.00000000 1.00000000
H 11.99489726 11.61085726 21.60811506 1834 104 0 1.00000000 1.00000000 1.00000000
H 11.22812245 13.84423713 21.88110383 1835 104 0 1.00000000 1.00000000 1.00000000
H 12.90870457 14.49907144 22.14035838 1836 104 0 1.00000000 1.00000000 1.00000000
H 12.58636540 12.75804629 24.39209395 1837 104 0 1.00000000 1.00000000 1.00000000
H 10.91222269 12.89320568 23.88131146 1838 104 0 1.00000000 1.00000000 1.00000000
H 11.22291118 15.46279252 23.99424129 1839 104 0 1.00000000 1.00000000 1.00000000
H 12.58818921 15.05968558 25.05038910 1840 104 0 1.00000000 1.00000000 1.00000000
H 11.31867957 13.68272126 26.49294503 1841 104 0 1.00000000 1.00000000 1.00000000
H 9.86572961 13.85304615 25.58551614 1842 104 0 1.00000000 1.00000000 1.00000000
H 9.92871135 15.45756335 27.56392199 1843 104 0 1.00000000 1.00000000 1.00000000
H 9.81773600 16.23835119 25.92135367 1844 104 0 1.00000000 1.00000000 1.00000000
H 11.34549261 16.15350410 26.82973365 1845 104 0 1.00000000 1.00000000 1.00000000
C 24.19231180 29.01462280 30.04845903 1846 105 0 0.56500000 0.56500000 0.56500000
C 25.60464940 28.99524065 29.48657237 1847 105 0 0.56500000 0.56500000 0.56500000
C 26.06929575 27.57256642 29.26282095 1848 105 0 0.56500000 0.56500000 0.56500000
C 27.16836199 27.39499764 28.13583482 1849 105 0 0.56500000 0.56500000 0.56500000
C 26.62764954 27.64270511 26.74386965 1850 105 0 0.56500000 0.56500000 0.56500000
C 27.79426825 27.53542077 25.75135052 1851 105 0 0.56500000 0.56500000 0.56500000
C 27.41655759 27.63525497 24.29288686 1852 105 0 0.56500000 0.56500000 0.56500000
H 23.61934213 28.08201050 29.95856024 1853 105 0 1.00000000 1.00000000 1.00000000
H 23.54705073 29.87501441 29.75234564 1854 105 0 1.00000000 1.00000000 1.00000000
H 24.18057530 29.16254091 31.16877532 1855 105 0 1.00000000 1.00000000 1.00000000
H 26.38747142 29.41639614 30.09864228 1856 105 0 1.00000000 1.00000000 1.00000000
H 25.69766678 29.56377699 28.60144492 1857 105 0 1.00000000 1.00000000 1.00000000
H 25.22094112 26.92236865 28.95214802 1858 105 0 1.00000000 1.00000000 1.00000000
H 26.39911782 27.07240033 30.15928075 1859 105 0 1.00000000 1.00000000 1.00000000
H 27.80807950 26.46709584 28.25828816 1860 105 0 1.00000000 1.00000000 1.00000000
H 27.96881883 28.08957039 28.24513372 1861 105 0 1.00000000 1.00000000 1.00000000
H 26.20984729 28.67864493 26.76322627 1862 105 0 1.00000000 1.00000000 1.00000000
H 25.87988599 26.96978094 26.37711025 1863 105 0 1.00000000 1.00000000 1.00000000
H 28.34723739 26.61838726 25.93650201 1864 105 0 1.00000000 1.00000000 1.00000000
H 28.47392427 28.42463947 25.85850983 1865 105 0 1.00000000 1.00000000 1.00000000
H 26.53373185 27.02678905 24.16818488 1866 105 0 1.00000000 1.00000000 1.00000000
H 28.27724298 27.43138430 23.56635656 1867 105 0 1.00000000 1.00000000 1.00000000
H 27.08050813 28.67279605 24.02003760 1868 105 0 1.00000000 1.00000000 1.00000000
C 8.61945561 33.84105706 7.00798081 1869 106 0 0.56500000 0.56500000 0.56500000
C 10.08959479 34.12098959 7.14376495 1870 106 0 0.56500000 0.56500000 0.56500000
C 10.36034632 35.45459382 7.83843782 1871 106 0 0.56500000 0.56500000 0.56500000
C 11.68623834 36.06785389 7.30160658 1872 106 0 0.56500000 0.56500000 0.56500000
C 12.96669547 35.10951150 7.46020626 1873 106 0 0.56500000 0.56500000 0.56500000
C 13.46479872 34.40632575 6.17326881 1874 106 0 0.56500000 0.56500000 0.56500000
C 14.78405642 33.77596045 6.31391712 1875 106 0 0.56500000 0.56500000 0.56500000
H 8.06775983 34.65175949 6.44416093 1876 106 0 1.00000000 1.00000000 1.00000000
H 8.22125808 33.84620842 8.02186111 1877 106 0 1.00000000 1.00000000 1.00000000
H 8.27598691 32.87971078 6.55479100 1878 106 0 1.00000000 1.00000000 1.00000000
H 10.53020889 34.28271358 6.05049941 1879 106 0 1.00000000 1.00000000 1.00000000
H 10.64481280 33.33369097 7.56659002 1880 106 0 1.00000000 1.00000000 1.00000000
H 10.47923521 35.27276209 8.96334358 1881 106 0 1.00000000 1.00000000 1.00000000
H 9.52345927 36.16266992 7.60261826 1882 106 0 1.00000000 1.00000000 1.00000000
H 11.88532873 37.03557774 7.82564830 1883 106 0 1.00000000 1.00000000 1.00000000
H 11.52429300 36.30848289 6.25670644 1884 106 0 1.00000000 1.00000000 1.00000000
H 12.80300169 34.35288532 8.20454500 1885 106 0 1.00000000 1.00000000 1.00000000
H 13.79120554 35.71632467 7.78434818 1886 106 0 1.00000000 1.00000000 1.00000000
H 13.53508931 35.06381983 5.31076133 1887 106 0 1.00000000 1.00000000 1.00000000
H 12.73680016 33.65775482 5.88346192 1888 106 0 1.00000000 1.00000000 1.00000000
H 15.54512646 34.57730739 6.48400376 1889 106 0 1.00000000 1.00000000 1.00000000
H 15.05044783 33.22964329 5.42415824 1890 106 0 1.00000000 1.00000000 1.00000000
H 14.75238599 33.02956608 7.18219975 1891 106 0 1.00000000 1.00000000 1.00000000
C 7.21580484 47.07299915 35.63687418 1892 107 0 0.56500000 0.56500000 0.56500000
C 5.87827555 47.77019557 35.82647940 1893 107 0 0.56500000 0.56500000 0.56500000
C 4.84457129 47.63057456 34.66284635 1894 107 0 0.56500000 0.56500000 0.56500000
C 3.45111807 48.11456623 35.01806394 1895 107 0 0.56500000 0.56500000 0.56500000
C 2.53153642 48.20798622 33.71395888 1896 107 0 0.56500000 0.56500000 0.56500000
C 1.24599291 49.01813975 33.85912980 1897 107 0 0.56500000 0.56500000 0.56500000
C 0.22761654 48.38700985 34.95433102 1898 107 0 0.56500000 0.56500000 0.56500000
H 7.99006834 47.37177568 36.33655973 1899 107 0 1.00000000 1.00000000 1.00000000
H 7.67506923 47.24931433 34.65926708 1900 107 0 1.00000000 1.00000000 1.00000000
H 7.08688739 45.98996539 35.79413860 1901 107 0 1.00000000 1.00000000 1.00000000
H 5.99844838 48.85050607 36.04173135 1902 107 0 1.00000000 1.00000000 1.00000000
H 5.38697664 47.41228037 36.76417450 1903 107 0 1.00000000 1.00000000 1.00000000
H 4.94140802 46.61239248 34.22674635 1904 107 0 1.00000000 1.00000000 1.00000000
H 5.26342343 48.15788165 33.83409679 1905 107 0 1.00000000 1.00000000 1.00000000
H 3.56468961 49.10286982 35.50066478 1906 107 0 1.00000000 1.00000000 1.00000000
H 2.90221931 47.51472828 35.79879997 1907 107 0 1.00000000 1.00000000 1.00000000
H 2.27288985 47.12319912 33.46689031 1908 107 0 1.00000000 1.00000000 1.00000000
H 3.23777547 48.55243171 32.91771598 1909 107 0 1.00000000 1.00000000 1.00000000
H 0.59889439 48.98152259 32.96948445 1910 107 0 1.00000000 1.00000000 1.00000000
H 1.54825158 50.01472062 34.13592606 1911 107 0 1.00000000 1.00000000 1.00000000
H 0.19517812 47.30556077 34.84387721 1912 107 0 1.00000000 1.00000000 1.00000000
H -0.81114854 48.73950863 34.70190356 1913 107 0 1.00000000 1.00000000 1.00000000
H 0.61092981 48.69817408 35.91540400 1914 107 0 1.00000000 1.00000000 1.00000000
C 41.81939246 8.08767222 31.13193346 1915 108 0 0.56500000 0.56500000 0.56500000
C 40.52707044 8.78036383 31.67146078 1916 108 0 0.56500000 0.56500000 0.56500000
C 40.76539481 9.72245261 32.88708754 1917 108 0 0.56500000 0.56500000 0.56500000
C 39.58187171 9.99064025 33.69787911 1918 108 0 0.56500000 0.56500000 0.56500000
C 39.82444252 10.95704798 34.86445984 1919 108 0 0.56500000 0.56500000 0.56500000
C 38.62293458 11.29589037 35.73725123 1920 108 0 0.56500000 0.56500000 0.56500000
C 38.86226448 12.47102096 36.60541649 1921 108 0 0.56500000 0.56500000 0.56500000
H 41.50467844 7.49864590 30.24391878 1922 108 0 1.00000000 1.00000000 1.00000000
H 42.28372475 7.42304939 31.80057103 1923 108 0 1.00000000 1.00000000 1.00000000
H 42.59214454 8.78251462 30.73046229 1924 108 0 1.00000000 1.00000000 1.00000000
H 39.85161281 7.97815469 32.05505545 1925 108 0 1.00000000 1.00000000 1.00000000
H 40.04875144 9.40608269 30.91945984 1926 108 0 1.00000000 1.00000000 1.00000000
H 41.33010680 10.63652739 32.48476080 1927 108 0 1.00000000 1.00000000 1.00000000
H 41.59158452 9.29675468 33.51397515 1928 108 0 1.00000000 1.00000000 1.00000000
H 39.16242301 9.00652284 34.10966593 1929 108 0 1.00000000 1.00000000 1.00000000
H 38.76747837 10.43229885 33.00221313 1930 108 0 1.00000000 1.00000000 1.00000000
H 40.24490328 11.89482757 34.47818342 1931 108 0 1.00000000 1.00000000 1.00000000
H 40.58867051 10.55830476 35.50768405 1932 108 0 1.00000000 1.00000000 1.00000000
H 38.35795441 10.45543280 36.36471426 1933 108 0 1.00000000 1.00000000 1.00000000
H 37.77017256 11.52036792 35.06147491 1934 108 0 1.00000000 1.00000000 1.00000000
H 37.90048263 12.80590821 37.11140741 1935 108 0 1.00000000 1.00000000 1.00000000
H 39.19017998 13.39675866 36.04803839 1936 108 0 1.00000000 1.00000000 1.00000000
H 39.69741590 12.33710701 37.30893267 1937 108 0 1.00000000 1.00000000 1.00000000
C -0.74911654 25.67462384 -1.93538674 1938 109 0 0.56500000 0.56500000 0.56500000
C -1.66989365 26.46530471 -0.98239483 1939 109 0 0.56500000 0.56500000 0.56500000
C -2.47885899 25.56461472 -0.07146742 1940 109 0 0.56500000 0.56500000 0.56500000
C -3.59829368 26.27554567 0.67282698 1941 109 0 0.56500000 0.56500000 0.56500000
C -4.29733183 25.41283152 1.70938597 1942 109 0 0.56500000 0.56500000 0.56500000
C -4.90499220 24.09170500 1.25017277 1943 109 0 0.56500000 0.56500000 0.56500000
C -6.14606619 23.62271309 2.01871625 1944 109 0 0.56500000 0.56500000 0.56500000
H -1.33071010 25.16727870 -2.64824861 1945 109 0 1.00000000 1.00000000 1.00000000
H -0.17409476 24.87824354 -1.45801398 1946 109 0 1.00000000 1.00000000 1.00000000
H -0.05219268 26.33761196 -2.48411571 1947 109 0 1.00000000 1.00000000 1.00000000
H -2.36747545 27.03764865 -1.58853004 1948 109 0 1.00000000 1.00000000 1.00000000
H -1.08773145 27.17821799 -0.43149163 1949 109 0 1.00000000 1.00000000 1.00000000
H -1.78239668 25.14076876 0.65656451 1950 109 0 1.00000000 1.00000000 1.00000000
H -2.94935429 24.80017107 -0.61036992 1951 109 0 1.00000000 1.00000000 1.00000000
H -4.27466312 26.58024263 -0.12309363 1952 109 0 1.00000000 1.00000000 1.00000000
H -3.15069360 27.19367442 1.07373874 1953 109 0 1.00000000 1.00000000 1.00000000
H -4.96906307 25.99674444 2.22231006 1954 109 0 1.00000000 1.00000000 1.00000000
H -3.56552822 25.22329495 2.44801974 1955 109 0 1.00000000 1.00000000 1.00000000
H -4.11837392 23.31329030 1.31419994 1956 109 0 1.00000000 1.00000000 1.00000000
H -5.17214704 24.10412807 0.18116831 1957 109 0 1.00000000 1.00000000 1.00000000
H -6.63132522 22.74587829 1.48374147 1958 109 0 1.00000000 1.00000000 1.00000000
H -6.86237235 24.40631437 2.17190436 1959 109 0 1.00000000 1.00000000 1.00000000
H -5.85758234 23.29008865 3.03537130 1960 109 0 1.00000000 1.00000000 1.00000000
C 27.63236347 26.97439381 7.45313871 1961 110 0 0.56500000 0.56500000 0.56500000
C 27.91078689 27.86245839 8.64491401 1962 110 0 0.56500000 0.56500000 0.56500000
C 28.76273676 27.13340397 9.67497388 1963 110 0 0.56500000 0.56500000 0.56500000
C 29.20665261 27.90220065 10.91498754 1964 110 0 0.56500000 0.56500000 0.56500000
C 28.12096143 28.23349895 11.95869629 1965 110 0 0.56500000 0.56500000 0.56500000
C 28.75058863 28.45720374 13.35633535 1966 110 0 0.56500000 0.56500000 0.56500000
C 27.68938904 28.79457810 14.41229821 1967 110 0 0.56500000 0.56500000 0.56500000
H 27.19289110 27.49992389 6.60230022 1968 110 0 1.00000000 1.00000000 1.00000000
H 26.86599325 26.20094711 7.74583591 1969 110 0 1.00000000 1.00000000 1.00000000
H 28.55929602 26.53928057 7.07603653 1970 110 0 1.00000000 1.00000000 1.00000000
H 27.04300506 28.17670826 9.33612863 1971 110 0 1.00000000 1.00000000 1.00000000
H 28.46553475 28.74853048 8.24537360 1972 110 0 1.00000000 1.00000000 1.00000000
H 29.66527378 26.78213590 9.13297874 1973 110 0 1.00000000 1.00000000 1.00000000
H 28.32149476 26.13103305 9.99662536 1974 110 0 1.00000000 1.00000000 1.00000000
H 29.73699516 28.85890491 10.67191170 1975 110 0 1.00000000 1.00000000 1.00000000
H 29.92471261 27.33989589 11.47872400 1976 110 0 1.00000000 1.00000000 1.00000000
H 27.43810669 27.37463824 12.12385135 1977 110 0 1.00000000 1.00000000 1.00000000
H 27.43712008 29.14497997 11.68085777 1978 110 0 1.00000000 1.00000000 1.00000000
H 29.39966474 29.28235753 13.30004331 1979 110 0 1.00000000 1.00000000 1.00000000
H 29.28213338 27.50914836 13.61471384 1980 110 0 1.00000000 1.00000000 1.00000000
H 28.15477553 29.10085810 15.35154277 1981 110 0 1.00000000 1.00000000 1.00000000
H 27.07944181 27.85734113 14.51441420 1982 110 0 1.00000000 1.00000000 1.00000000
H 27.02648368 29.53960078 13.98634077 1983 110 0 1.00000000 1.00000000 1.00000000
C 30.29555937 11.63438115 13.87849909 1984 111 0 0.56500000 0.56500000 0.56500000
C 30.09616723 10.96509153 12.50325560 1985 111 0 0.56500000 0.56500000 0.56500000
C 29.78707326 12.08005735 11.46643354 1986 111 0 0.56500000 0.56500000 0.56500000
C 29.95996511 11.79232272 9.97514165 1987 111 0 0.56500000 0.56500000 0.56500000
C 29.26270414 12.82080617 9.00607260 1988 111 0 0.56500000 0.56500000 0.56500000
C 29.80462122 12.82489448 7.54577845 1989 111 0 0.56500000 0.56500000 0.56500000
C 29.48045956 11.51569528 6.80055755 1990 111 0 0.56500000 0.56500000 0.56500000
H 31.15320756 12.29654935 13.93885866 1991 111 0 1.00000000 1.00000000 1.00000000
H 30.35787898 10.87983896 14.65608135 1992 111 0 1.00000000 1.00000000 1.00000000
H 29.36897287 12.20707712 14.19074291 1993 111 0 1.00000000 1.00000000 1.00000000
H 29.21446405 10.43552681 12.52829864 1994 111 0 1.00000000 1.00000000 1.00000000
H 30.88900415 10.28981840 12.12713770 1995 111 0 1.00000000 1.00000000 1.00000000
H 30.42693237 12.98447145 11.65722463 1996 111 0 1.00000000 1.00000000 1.00000000
H 28.81687660 12.50865656 11.64910788 1997 111 0 1.00000000 1.00000000 1.00000000
H 29.68675665 10.78194136 9.69416139 1998 111 0 1.00000000 1.00000000 1.00000000
H 31.03545677 11.80807540 9.72892678 1999 111 0 1.00000000 1.00000000 1.00000000
H 29.50575328 13.85984834 9.40550511 2000 111 0 1.00000000 1.00000000 1.00000000
H 28.16377001 12.67326132 8.99986646 2001 111 0 1.00000000 1.00000000 1.00000000
H 30.91571890 13.10878334 7.45884913 2002 111 0 1.00000000 1.00000000 1.00000000
H 29.28605047 13.56377927 6.92326502 2003 111 0 1.00000000 1.00000000 1.00000000
H 30.06970922 10.68866360 7.19721534 2004 111 0 1.00000000 1.00000000 1.00000000
H 29.74558890 11.46897471 5.70637414 2005 111 0 1.00000000 1.00000000 1.00000000
H 28.46603474 11.23418715 6.87299155 2006 111 0 1.00000000 1.00000000 1.00000000
C 25.67929073 44.20694630 2.51141657 2007 112 0 0.56500000 0.56500000 0.56500000
C 25.41560263 45.67720994 2.37129765 2008 112 0 0.56500000 0.56500000 0.56500000
C 24.22092604 46.19836857 3.16697579 2009 112 0 0.56500000 0.56500000 0.56500000
C 23.66806833 47.55894186 2.68718521 2010 112 0 0.56500000 0.56500000 0.56500000
C 22.42328452 47.80612607 3.49155960 2011 112 0 0.56500000 0.56500000 0.56500000
C 21.54382102 49.03481192 3.00348210 2012 112 0 0.56500000 0.56500000 0.56500000
C 20.21021739 49.17825176 3.68417060 2013 112 0 0.56500000 0.56500000 0.56500000
H 25.53925100 43.88313340 3.56348876 2014 112 0 1.00000000 1.00000000 1.00000000
H 26.68189635 43.96395583 2.16804553 2015 112 0 1.00000000 1.00000000 1.00000000
H 24.95467720 43.56866667 2.02407417 2016 112 0 1.00000000 1.00000000 1.00000000
H 25.33658983 45.84060998 1.29558822 2017 112 0 1.00000000 1.00000000 1.00000000
H 26.26958250 46.27915845 2.69689266 2018 112 0 1.00000000 1.00000000 1.00000000
H 24.41010379 46.31651962 4.23816650 2019 112 0 1.00000000 1.00000000 1.00000000
H 23.35374076 45.48938672 2.98129873 2020 112 0 1.00000000 1.00000000 1.00000000
H 23.39481336 47.52922985 1.58175469 2021 112 0 1.00000000 1.00000000 1.00000000
H 24.37016858 48.39819705 2.89305639 2022 112 0 1.00000000 1.00000000 1.00000000
H 22.79127625 47.93229244 4.51394082 2023 112 0 1.00000000 1.00000000 1.00000000
H 21.71125588 47.02935882 3.33796468 2024 112 0 1.00000000 1.00000000 1.00000000
H 21.32190699 48.74723137 2.01274461 2025 112 0 1.00000000 1.00000000 1.00000000
H 22.13149222 49.97275397 2.94653401 2026 112 0 1.00000000 1.00000000 1.00000000
H 19.59298760 48.30986742 3.61790883 2027 112 0 1.00000000 1.00000000 1.00000000
H 19.64426816 50.03818566 3.26480007 2028 112 0 1.00000000 1.00000000 1.00000000
H 20.27420835 49.39826145 4.80015108 2029 112 0 1.00000000 1.00000000 1.00000000
C 20.13960715 29.32163672 30.23753317 2030 113 0 0.56500000 0.56500000 0.56500000
C 20.88792006 28.55921561 31.32392225 2031 113 0 0.56500000 0.56500000 0.56500000
C 19.83132711 27.69755664 32.09882572 2032 113 0 0.56500000 0.56500000 0.56500000
C 20.34817132 26.65411605 33.15014401 2033 113 0 0.56500000 0.56500000 0.56500000
C 20.88479722 27.42427351 34.37593133 2034 113 0 0.56500000 0.56500000 0.56500000
C 21.52039393 26.52500269 35.48878891 2035 113 0 0.56500000 0.56500000 0.56500000
C 20.58973001 25.37956338 35.96435637 2036 113 0 0.56500000 0.56500000 0.56500000
H 20.69839693 29.44845502 29.26736184 2037 113 0 1.00000000 1.00000000 1.00000000
H 19.90823725 30.33169632 30.60606106 2038 113 0 1.00000000 1.00000000 1.00000000
H 19.18111039 28.86266397 29.85551196 2039 113 0 1.00000000 1.00000000 1.00000000
H 21.46361993 29.22332089 32.04783196 2040 113 0 1.00000000 1.00000000 1.00000000
H 21.59039068 27.81609341 30.91110149 2041 113 0 1.00000000 1.00000000 1.00000000
H 19.15051670 27.26804994 31.34928692 2042 113 0 1.00000000 1.00000000 1.00000000
H 19.13876337 28.40222261 32.68153391 2043 113 0 1.00000000 1.00000000 1.00000000
H 21.16879268 26.05244375 32.68377656 2044 113 0 1.00000000 1.00000000 1.00000000
H 19.52517724 26.07031068 33.36630489 2045 113 0 1.00000000 1.00000000 1.00000000
H 20.08690137 28.11447159 34.72436084 2046 113 0 1.00000000 1.00000000 1.00000000
H 21.70766254 28.09499237 33.97088758 2047 113 0 1.00000000 1.00000000 1.00000000
H 21.80594900 27.22008951 36.27270309 2048 113 0 1.00000000 1.00000000 1.00000000
H 22.48117709 26.15742581 35.11042682 2049 113 0 1.00000000 1.00000000 1.00000000
H 20.26723736 24.75101980 35.13270307 2050 113 0 1.00000000 1.00000000 1.00000000
H 19.62752393 25.65438510 36.39452345 2051 113 0 1.00000000 1.00000000 1.00000000
H 21.03407057 24.76899420 36.70581821 2052 113 0 1.00000000 1.00000000 1.00000000
C 46.87394953 33.25906836 36.82373760 2053 114 0 0.56500000 0.56500000 0.56500000
C 45.86594014 33.97053010 35.88815157 2054 114 0 0.56500000 0.56500000 0.56500000
C 44.67147645 34.41092417 36.76427033 2055 114 0 0.56500000 0.56500000 0.56500000
C 43.81380378 35.50356790 36.03068751 2056 114 0 0.56500000 0.56500000 0.56500000
C 42.50521775 35.92672255 36.73377171 2057 114 0 0.56500000 0.56500000 0.56500000
C 42.71508985 36.63337219 38.11852306 2058 114 0 0.56500000 0.56500000 0.56500000
C 41.34274133 36.98639888 38.79883865 2059 114 0 0.56500000 0.56500000 0.56500000
H 47.15456836 33.98217736 37.64668298 2060 114 0 1.00000000 1.00000000 1.00000000
H 47.84472359 32.89760655 36.43477436 2061 114 0 1.00000000 1.00000000 1.00000000
H 46.38378519 32.41006125 37.35861376 2062 114 0 1.00000000 1.00000000 1.00000000
H 45.63042525 33.27398203 35.08807112 2063 114 0 1.00000000 1.00000000 1.00000000
H 46.26394528 34.99370822 35.53669197 2064 114 0 1.00000000 1.00000000 1.00000000
H 45.12233558 34.83015587 37.67758773 2065 114 0 1.00000000 1.00000000 1.00000000
H 44.08810723 33.56465481 37.15894641 2066 114 0 1.00000000 1.00000000 1.00000000
H 43.53086488 35.06301779 35.02834071 2067 114 0 1.00000000 1.00000000 1.00000000
H 44.55505839 36.29498725 35.84707012 2068 114 0 1.00000000 1.00000000 1.00000000
H 41.90875482 35.00590033 36.87861887 2069 114 0 1.00000000 1.00000000 1.00000000
H 41.91530839 36.66492529 36.18446764 2070 114 0 1.00000000 1.00000000 1.00000000
H 43.16719499 37.63930852 37.85123145 2071 114 0 1.00000000 1.00000000 1.00000000
H 43.34407132 36.14226948 38.82223800 2072 114 0 1.00000000 1.00000000 1.00000000
H 41.62678100 37.63599477 39.61633797 2073 114 0 1.00000000 1.00000000 1.00000000
H 40.83822837 36.10290817 39.19054976 2074 114 0 1.00000000 1.00000000 1.00000000
H 40.59023671 37.58852759 38.16531310 2075 114 0 1.00000000 1.00000000 1.00000000
C 46.90405924 53.27530824 38.79126863 2076 115 0 0.56500000 0.56500000 0.56500000
C 46.44804427 52.26953481 37.78139517 2077 115 0 0.56500000 0.56500000 0.56500000
C 45.75269147 51.17838814 38.60007008 2078 115 0 0.56500000 0.56500000 0.56500000
C 44.96247281 50.15838640 37.84242850 2079 115 0 0.56500000 0.56500000 0.56500000
C 45.72578882 49.45224443 36.67801304 2080 115 0 0.56500000 0.56500000 0.56500000
C 44.82043846 48.57918356 35.80917751 2081 115 0 0.56500000 0.56500000 0.56500000
C 43.76816318 47.85148053 36.60178589 2082 115 0 0.56500000 0.56500000 0.56500000
H 47.60075953 54.03080920 38.46338745 2083 115 0 1.00000000 1.00000000 1.00000000
H 47.45499257 52.70132068 39.56793509 2084 115 0 1.00000000 1.00000000 1.00000000
H 46.02655379 53.71303656 39.21804459 2085 115 0 1.00000000 1.00000000 1.00000000
H 47.36356505 51.86777943 37.28815749 2086 115 0 1.00000000 1.00000000 1.00000000
H 45.69808045 52.72697514 37.12003774 2087 115 0 1.00000000 1.00000000 1.00000000
H 45.16192520 51.74427895 39.31372873 2088 115 0 1.00000000 1.00000000 1.00000000
H 46.45716522 50.67580615 39.26430043 2089 115 0 1.00000000 1.00000000 1.00000000
H 44.10689937 50.69415418 37.43486500 2090 115 0 1.00000000 1.00000000 1.00000000
H 44.56425289 49.40132084 38.57307525 2091 115 0 1.00000000 1.00000000 1.00000000
H 46.50892127 48.92162851 37.16760087 2092 115 0 1.00000000 1.00000000 1.00000000
H 46.30217000 50.24268189 36.18979327 2093 115 0 1.00000000 1.00000000 1.00000000
H 45.46982251 47.85111249 35.34275195 2094 115 0 1.00000000 1.00000000 1.00000000
H 44.40397558 49.18348266 34.93871016 2095 115 0 1.00000000 1.00000000 1.00000000
H 42.96453223 48.52620245 36.89219318 2096 115 0 1.00000000 1.00000000 1.00000000
H 44.18241305 47.48929779 37.57594438 2097 115 0 1.00000000 1.00000000 1.00000000
H 43.43278456 46.90173627 36.11850369 2098 115 0 1.00000000 1.00000000 1.00000000
C 12.02509529 18.72866914 29.04505388 2099 116 0 0.56500000 0.56500000 0.56500000
C 12.02223564 19.81967193 30.05893720 2100 116 0 0.56500000 0.56500000 0.56500000
C 12.22257646 21.18999426 29.26866399 2101 116 0 0.56500000 0.56500000 0.56500000
C 12.24262345 22.47485653 30.00051737 2102 116 0 0.56500000 0.56500000 0.56500000
C 10.91046465 22.81004343 30.73711836 2103 116 0 0.56500000 0.56500000 0.56500000
C 10.99014859 23.83318131 31.87628118 2104 116 0 0.56500000 0.56500000 0.56500000
C 9.59406906 24.28464944 32.27319451 2105 116 0 0.56500000 0.56500000 0.56500000
H 11.31551641 18.85350824 28.25054784 2106 116 0 1.00000000 1.00000000 1.00000000
H 11.88053051 17.80029690 29.60892446 2107 116 0 1.00000000 1.00000000 1.00000000
H 13.04634400 18.63566279 28.53445473 2108 116 0 1.00000000 1.00000000 1.00000000
H 12.86416932 19.66191051 30.70675200 2109 116 0 1.00000000 1.00000000 1.00000000
H 11.04514740 19.80788322 30.58654304 2110 116 0 1.00000000 1.00000000 1.00000000
H 11.54889841 21.17841759 28.45813373 2111 116 0 1.00000000 1.00000000 1.00000000
H 13.20007753 20.97644474 28.83221373 2112 116 0 1.00000000 1.00000000 1.00000000
H 12.58751555 23.27978110 29.36231902 2113 116 0 1.00000000 1.00000000 1.00000000
H 13.07972151 22.43096579 30.75740837 2114 116 0 1.00000000 1.00000000 1.00000000
H 10.41222035 21.88780954 31.10643113 2115 116 0 1.00000000 1.00000000 1.00000000
H 10.17284162 23.14963483 30.02266397 2116 116 0 1.00000000 1.00000000 1.00000000
H 11.53944554 24.76431220 31.61493251 2117 116 0 1.00000000 1.00000000 1.00000000
H 11.49346786 23.36797282 32.72414802 2118 116 0 1.00000000 1.00000000 1.00000000
H 9.07813226 24.88555185 31.49738434 2119 116 0 1.00000000 1.00000000 1.00000000
H 9.62724244 24.94955432 33.15489009 2120 116 0 1.00000000 1.00000000 1.00000000
H 9.05820062 23.42226691 32.65115929 2121 116 0 1.00000000 1.00000000 1.00000000
C 22.10193482 35.08512242 30.89054374 2122 117 0 0.56500000 0.56500000 0.56500000
C 23.60104919 35.06912067 30.73426806 2123 117 0 0.56500000 0.56500000 0.56500000
C 24.17613289 36.36723107 31.22235131 2124 117 0 0.56500000 0.56500000 0.56500000
C 23.86145258 37.62535567 30.42564894 2125 117 0 0.56500000 0.56500000 0.56500000
C 24.65871485 37.72758807 29.10859476 2126 117 0 0.56500000 0.56500000 0.56500000
C 24.11280532 38.84836783 28.22528554 2127 117 0 0.56500000 0.56500000 0.56500000
C 24.35791370 40.24932573 28.86471152 2128 117 0 0.56500000 0.56500000 0.56500000
H 21.72837612 34.09967792 30.69637161 2129 117 0 1.00000000 1.00000000 1.00000000
H 21.59746180 35.86968518 30.29201922 2130 117 0 1.00000000 1.00000000 1.00000000
H 21.96250762 35.50017264 31.92403683 2131 117 0 1.00000000 1.00000000 1.00000000
H 23.90213302 34.77181657 29.73426442 2132 117 0 1.00000000 1.00000000 1.00000000
H 23.97057258 34.28298548 31.38435228 2133 117 0 1.00000000 1.00000000 1.00000000
H 25.33684622 36.23877498 31.12970199 2134 117 0 1.00000000 1.00000000 1.00000000
H 23.81098554 36.59005892 32.15942158 2135 117 0 1.00000000 1.00000000 1.00000000
H 24.23896604 38.39696942 31.01112445 2136 117 0 1.00000000 1.00000000 1.00000000
H 22.80054108 37.79163347 30.33470098 2137 117 0 1.00000000 1.00000000 1.00000000
H 24.64009023 36.79348293 28.54882101 2138 117 0 1.00000000 1.00000000 1.00000000
H 25.71593235 38.00034355 29.39771348 2139 117 0 1.00000000 1.00000000 1.00000000
H 23.05885246 38.76760992 27.96264244 2140 117 0 1.00000000 1.00000000 1.00000000
H 24.54919275 38.74843027 27.25456987 2141 117 0 1.00000000 1.00000000 1.00000000
H 24.04011440 40.95337850 28.13103448 2142 117 0 1.00000000 1.00000000 1.00000000
H 25.42284519 40.37350617 29.12392375 2143 117 0 1.00000000 1.00000000 1.00000000
H 23.63790053 40.25714243 29.69784317 2144 117 0 1.00000000 1.00000000 1.00000000
C 44.88210197 21.47357478 37.92386738 2145 118 0 0.56500000 0.56500000 0.56500000
C 46.17978591 22.23518293 38.23954513 2146 118 0 0.56500000 0.56500000 0.56500000
C 46.82160790 22.64004570 36.84278222 2147 118 0 0.56500000 0.56500000 0.56500000
C 45.93839572 23.43200675 35.85846226 2148 118 0 0.56500000 0.56500000 0.56500000
C 46.81900203 24.10233785 34.81496255 2149 118 0 0.56500000 0.56500000 0.56500000
C 46.23046364 25.22969011 33.94911261 2150 118 0 0.56500000 0.56500000 0.56500000
C 44.91253096 25.05061314 33.06928352 2151 118 0 0.56500000 0.56500000 0.56500000
H 44.21837079 21.20515589 38.80191110 2152 118 0 1.00000000 1.00000000 1.00000000
H 45.08537392 20.55055720 37.40526462 2153 118 0 1.00000000 1.00000000 1.00000000
H 44.18650260 21.99110493 37.31196825 2154 118 0 1.00000000 1.00000000 1.00000000
H 46.82483120 21.62694690 38.82953945 2155 118 0 1.00000000 1.00000000 1.00000000
H 45.94074560 23.16319159 38.86755164 2156 118 0 1.00000000 1.00000000 1.00000000
H 47.28976394 21.73283445 36.31114523 2157 118 0 1.00000000 1.00000000 1.00000000
H 47.65968590 23.14725917 37.19596032 2158 118 0 1.00000000 1.00000000 1.00000000
H 45.30489072 24.11765789 36.38375055 2159 118 0 1.00000000 1.00000000 1.00000000
H 45.32410241 22.76402765 35.27116607 2160 118 0 1.00000000 1.00000000 1.00000000
H 47.26645014 23.41001058 34.14025146 2161 118 0 1.00000000 1.00000000 1.00000000
H 47.67781176 24.59196035 35.31782389 2162 118 0 1.00000000 1.00000000 1.00000000
H 46.99952746 25.56348548 33.23253573 2163 118 0 1.00000000 1.00000000 1.00000000
H 46.05125030 26.15890448 34.59892900 2164 118 0 1.00000000 1.00000000 1.00000000
H 44.17735961 24.50285813 33.72285935 2165 118 0 1.00000000 1.00000000 1.00000000
H 45.01618767 24.52885123 32.11622223 2166 118 0 1.00000000 1.00000000 1.00000000
H 44.56830070 26.06917937 32.83030596 2167 118 0 1.00000000 1.00000000 1.00000000
C 31.14220942 21.71499762 18.55102059 2168 119 0 0.56500000 0.56500000 0.56500000
C 32.70324063 21.42615908 18.79143789 2169 119 0 0.56500000 0.56500000 0.56500000
C 33.64138263 22.36890925 17.97206110 2170 119 0 0.56500000 0.56500000 0.56500000
C 33.44995362 23.85734099 18.21749283 2171 119 0 0.56500000 0.56500000 0.56500000
C 34.54399755 24.69999684 17.63021272 2172 119 0 0.56500000 0.56500000 0.56500000
C 35.91497642 24.65099939 18.19238409 2173 119 0 0.56500000 0.56500000 0.56500000
C 36.90041044 25.51654737 17.41777957 2174 119 0 0.56500000 0.56500000 0.56500000
H 30.59209206 21.04256696 19.19458008 2175 119 0 1.00000000 1.00000000 1.00000000
H 30.96867690 21.49393250 17.50537172 2176 119 0 1.00000000 1.00000000 1.00000000
H 30.74749301 22.73547147 18.65299639 2177 119 0 1.00000000 1.00000000 1.00000000
H 32.88091758 20.40417740 18.44502917 2178 119 0 1.00000000 1.00000000 1.00000000
H 32.90583863 21.40022852 19.83663987 2179 119 0 1.00000000 1.00000000 1.00000000
H 33.52008284 22.16345223 16.93940720 2180 119 0 1.00000000 1.00000000 1.00000000
H 34.61104554 22.04169417 18.30995986 2181 119 0 1.00000000 1.00000000 1.00000000
H 33.41844771 24.14504362 19.27109972 2182 119 0 1.00000000 1.00000000 1.00000000
H 32.49124323 24.18331417 17.81386695 2183 119 0 1.00000000 1.00000000 1.00000000
H 34.10739352 25.71610434 17.56135462 2184 119 0 1.00000000 1.00000000 1.00000000
H 34.64360691 24.36155468 16.61133944 2185 119 0 1.00000000 1.00000000 1.00000000
H 36.32438017 23.60035797 18.27119881 2186 119 0 1.00000000 1.00000000 1.00000000
H 35.84657155 25.03769846 19.21014656 2187 119 0 1.00000000 1.00000000 1.00000000
H 36.37284054 26.45353084 17.16457204 2188 119 0 1.00000000 1.00000000 1.00000000
H 37.21359807 25.01607361 16.45957531 2189 119 0 1.00000000 1.00000000 1.00000000
H 37.78516744 25.70552212 17.99605027 2190 119 0 1.00000000 1.00000000 1.00000000
C 13.50501148 49.65502084 21.59702708 2191 120 0 0.56500000 0.56500000 0.56500000
C 13.46411542 48.14835488 21.54158232 2192 120 0 0.56500000 0.56500000 0.56500000
C 12.27431106 47.57713228 22.31371050 2193 120 0 0.56500000 0.56500000 0.56500000
C 12.14050540 46.09457515 21.97185134 2194 120 0 0.56500000 0.56500000 0.56500000
C 10.90136785 45.44202812 22.66580245 2195 120 0 0.56500000 0.56500000 0.56500000
C 9.60619146 46.16085720 22.50588125 2196 120 0 0.56500000 0.56500000 0.56500000
C 8.64227535 45.38042072 23.34496893 2197 120 0 0.56500000 0.56500000 0.56500000
H 14.51409253 50.11334979 21.29210696 2198 120 0 1.00000000 1.00000000 1.00000000
H 13.31249550 50.09539990 22.62130973 2199 120 0 1.00000000 1.00000000 1.00000000
H 12.81912786 50.02561512 20.85883355 2200 120 0 1.00000000 1.00000000 1.00000000
H 14.39422847 47.68036964 22.03359599 2201 120 0 1.00000000 1.00000000 1.00000000
H 13.39617642 47.85462992 20.47606083 2202 120 0 1.00000000 1.00000000 1.00000000
H 11.32874671 48.18614943 22.11512138 2203 120 0 1.00000000 1.00000000 1.00000000
H 12.49987147 47.69854731 23.35923416 2204 120 0 1.00000000 1.00000000 1.00000000
H 12.97739700 45.44341079 22.17640211 2205 120 0 1.00000000 1.00000000 1.00000000
H 11.91093146 46.10608879 20.87924649 2206 120 0 1.00000000 1.00000000 1.00000000
H 11.07688566 45.53040215 23.74274732 2207 120 0 1.00000000 1.00000000 1.00000000
H 10.86959877 44.35225520 22.34244994 2208 120 0 1.00000000 1.00000000 1.00000000
H 9.34871520 45.93561313 21.40499996 2209 120 0 1.00000000 1.00000000 1.00000000
H 9.57564227 47.17739680 22.95259812 2210 120 0 1.00000000 1.00000000 1.00000000
H 8.41466023 44.33448770 22.97084338 2211 120 0 1.00000000 1.00000000 1.00000000
H 7.64143041 45.78245825 23.43690270 2212 120 0 1.00000000 1.00000000 1.00000000
H 8.92732066 45.31434308 24.37375253 2213 120 0 1.00000000 1.00000000 1.00000000
C 9.29291404 30.71394860 3.79487337 2214 121 0 0.56500000 0.56500000 0.56500000
C 10.32829122 31.00182684 4.83468843 2215 121 0 0.56500000 0.56500000 0.56500000
C 11.61355345 30.16188264 4.59561359 2216 121 0 0.56500000 0.56500000 0.56500000
C 12.63343962 30.29081099 5.80029695 2217 121 0 0.56500000 0.56500000 0.56500000
C 13.97532479 29.63943890 5.52863867 2218 121 0 0.56500000 0.56500000 0.56500000
C 14.80230190 29.49969127 6.84358100 2219 121 0 0.56500000 0.56500000 0.56500000
C 16.11974620 28.84271270 6.50915547 2220 121 0 0.56500000 0.56500000 0.56500000
H 9.19896862 29.63610820 3.70514029 2221 121 0 1.00000000 1.00000000 1.00000000
H 9.60090464 30.99247973 2.79536937 2222 121 0 1.00000000 1.00000000 1.00000000
H 8.27672685 31.13464790 4.02756392 2223 121 0 1.00000000 1.00000000 1.00000000
H 9.89583835 30.75100165 5.87653689 2224 121 0 1.00000000 1.00000000 1.00000000
H 10.63881495 32.04623219 4.87067978 2225 121 0 1.00000000 1.00000000 1.00000000
H 12.16709099 30.53663482 3.72520370 2226 121 0 1.00000000 1.00000000 1.00000000
H 11.32073531 29.12998931 4.45959166 2227 121 0 1.00000000 1.00000000 1.00000000
H 12.21790673 30.03431551 6.75685385 2228 121 0 1.00000000 1.00000000 1.00000000
H 12.72606601 31.35781584 5.82144279 2229 121 0 1.00000000 1.00000000 1.00000000
H 14.54391094 30.16077522 4.76938385 2230 121 0 1.00000000 1.00000000 1.00000000
H 13.72526378 28.56481732 5.17774323 2231 121 0 1.00000000 1.00000000 1.00000000
H 14.16265452 28.91026971 7.50811206 2232 121 0 1.00000000 1.00000000 1.00000000
H 14.96428031 30.43407235 7.45500776 2233 121 0 1.00000000 1.00000000 1.00000000
H 16.82534823 28.81341250 7.38377343 2234 121 0 1.00000000 1.00000000 1.00000000
H 16.71277433 29.31564886 5.65538363 2235 121 0 1.00000000 1.00000000 1.00000000
H 16.01334659 27.74025224 6.19581422 2236 121 0 1.00000000 1.00000000 1.00000000
C 46.92385473 57.59249474 28.67240496 2237 122 0 0.56500000 0.56500000 0.56500000
C 45.91054196 56.51960265 28.81755873 2238 122 0 0.56500000 0.56500000 0.56500000
C 46.42815386 55.22868380 29.40698057 2239 122 0 0.56500000 0.56500000 0.56500000
C 45.34619787 54.15813056 29.63509389 2240 122 0 0.56500000 0.56500000 0.56500000
C 46.07811814 52.85041919 29.92366588 2241 122 0 0.56500000 0.56500000 0.56500000
C 45.22160829 51.81238191 30.73394693 2242 122 0 0.56500000 0.56500000 0.56500000
C 43.78042472 51.56618494 30.32084098 2243 122 0 0.56500000 0.56500000 0.56500000
H 47.52349248 57.45083726 27.76366395 2244 122 0 1.00000000 1.00000000 1.00000000
H 47.66269357 57.62469763 29.43567976 2245 122 0 1.00000000 1.00000000 1.00000000
H 46.48215866 58.56038603 28.53365782 2246 122 0 1.00000000 1.00000000 1.00000000
H 45.59419774 56.35027185 27.83897625 2247 122 0 1.00000000 1.00000000 1.00000000
H 45.05525406 56.86349867 29.45168467 2248 122 0 1.00000000 1.00000000 1.00000000
H 46.91968144 55.44471762 30.37845669 2249 122 0 1.00000000 1.00000000 1.00000000
H 47.28557648 54.72005907 28.85406021 2250 122 0 1.00000000 1.00000000 1.00000000
H 44.69986309 54.08176951 28.78404685 2251 122 0 1.00000000 1.00000000 1.00000000
H 44.65038610 54.50556243 30.45649729 2252 122 0 1.00000000 1.00000000 1.00000000
H 46.99448466 52.95344161 30.51436191 2253 122 0 1.00000000 1.00000000 1.00000000
H 46.37736609 52.44374438 28.92900359 2254 122 0 1.00000000 1.00000000 1.00000000
H 45.15250772 52.27350025 31.75369727 2255 122 0 1.00000000 1.00000000 1.00000000
H 45.89876160 50.91677988 30.86916440 2256 122 0 1.00000000 1.00000000 1.00000000
H 43.70707708 51.06507984 29.34695857 2257 122 0 1.00000000 1.00000000 1.00000000
H 43.18396648 52.45535722 30.14152602 2258 122 0 1.00000000 1.00000000 1.00000000
H 43.29027083 50.98654243 31.06480204 2259 122 0 1.00000000 1.00000000 1.00000000
C 38.91508827 35.27015666 13.18648020 2260 123 0 0.56500000 0.56500000 0.56500000
C 39.29811769 36.64674278 13.80782807 2261 123 0 0.56500000 0.56500000 0.56500000
C 38.13154308 37.58464646 14.16009409 2262 123 0 0.56500000 0.56500000 0.56500000
C 38.68204809 38.97260956 14.54028113 2263 123 0 0.56500000 0.56500000 0.56500000
C 37.52912652 39.93431279 14.89006794 2264 123 0 0.56500000 0.56500000 0.56500000
C 37.90024713 41.37988199 14.97192819 2265 123 0 0.56500000 0.56500000 0.56500000
C 37.00951061 42.23505945 15.84491150 2266 123 0 0.56500000 0.56500000 0.56500000
H 37.98723151 34.90818556 13.65934466 2267 123 0 1.00000000 1.00000000 1.00000000
H 39.76520688 34.61292607 13.23419312 2268 123 0 1.00000000 1.00000000 1.00000000
H 38.58709910 35.47781485 12.16822075 2269 123 0 1.00000000 1.00000000 1.00000000
H 39.86513610 37.15971055 13.01818013 2270 123 0 1.00000000 1.00000000 1.00000000
H 39.97731626 36.58540194 14.67828940 2271 123 0 1.00000000 1.00000000 1.00000000
H 37.45195022 37.18422390 14.97050672 2272 123 0 1.00000000 1.00000000 1.00000000
H 37.38804854 37.76906807 13.40152955 2273 123 0 1.00000000 1.00000000 1.00000000
H 39.30374879 39.36762475 13.70969303 2274 123 0 1.00000000 1.00000000 1.00000000
H 39.25382226 38.89693212 15.47533796 2275 123 0 1.00000000 1.00000000 1.00000000
H 37.03246971 39.64641686 15.83490735 2276 123 0 1.00000000 1.00000000 1.00000000
H 36.73956650 39.77371601 14.11784392 2277 123 0 1.00000000 1.00000000 1.00000000
H 38.15161414 41.82239386 14.02652474 2278 123 0 1.00000000 1.00000000 1.00000000
H 38.79952614 41.30429100 15.58886968 2279 123 0 1.00000000 1.00000000 1.00000000
H 37.37681568 43.27229709 15.79430611 2280 123 0 1.00000000 1.00000000 1.00000000
H 36.92000480 41.86703898 16.83600420 2281 123 0 1.00000000 1.00000000 1.00000000
H 36.03463984 42.26146159 15.45442113 2282 123 0 1.00000000 1.00000000 1.00000000
C 11.17078204 6.90293854 36.88553091 2283 124 0 0.56500000 0.56500000 0.56500000
C 10.15858052 7.11412029 35.72506007 2284 124 0 0.56500000 0.56500000 0.56500000
C 9.52675368 5.77427920 35.38197027 2285 124 0 0.56500000 0.56500000 0.56500000
C 8.89989619 5.70172354 34.06851399 2286 124 0 0.56500000 0.56500000 0.56500000
C 9.88825705 5.73708588 32.93677383 2287 124 0 0.56500000 0.56500000 0.56500000
C 9.18832986 5.12802315 31.67163072 2288 124 0 0.56500000 0.56500000 0.56500000
C 7.84706563 5.74533296 31.38491823 2289 124 0 0.56500000 0.56500000 0.56500000
H 11.83166335 6.08278716 36.68275174 2290 124 0 1.00000000 1.00000000 1.00000000
H 10.67451336 6.71255598 37.78941949 2291 124 0 1.00000000 1.00000000 1.00000000
H 11.66022855 7.81023872 37.11011103 2292 124 0 1.00000000 1.00000000 1.00000000
H 10.68768988 7.63106589 34.94469067 2293 124 0 1.00000000 1.00000000 1.00000000
H 9.33993304 7.76143520 36.05570841 2294 124 0 1.00000000 1.00000000 1.00000000
H 8.88125334 5.56576101 36.27314913 2295 124 0 1.00000000 1.00000000 1.00000000
H 10.20721957 4.93316012 35.47748031 2296 124 0 1.00000000 1.00000000 1.00000000
H 8.03714848 6.38955944 33.94634099 2297 124 0 1.00000000 1.00000000 1.00000000
H 8.45793625 4.73979912 34.01628266 2298 124 0 1.00000000 1.00000000 1.00000000
H 10.73169987 5.09705694 33.16193102 2299 124 0 1.00000000 1.00000000 1.00000000
H 10.21451422 6.77200550 32.78171750 2300 124 0 1.00000000 1.00000000 1.00000000
H 9.28299053 4.01992024 31.86114497 2301 124 0 1.00000000 1.00000000 1.00000000
H 9.85433839 5.37541003 30.82957177 2302 124 0 1.00000000 1.00000000 1.00000000
H 6.94101753 5.41981943 31.84805704 2303 124 0 1.00000000 1.00000000 1.00000000
H 7.69009232 5.63084648 30.26878229 2304 124 0 1.00000000 1.00000000 1.00000000
H 7.93929289 6.83728340 31.59704560 2305 124 0 1.00000000 1.00000000 1.00000000
C 42.13520467 20.10759495 28.85744971 2306 125 0 0.56500000 0.56500000 0.56500000
C 42.53631504 21.03785135 30.01062511 2307 125 0 0.56500000 0.56500000 0.56500000
C 41.86591721 20.80768498 31.42890005 2308 125 0 0.56500000 0.56500000 0.56500000
C 42.32007162 21.84734478 32.41102524 2309 125 0 0.56500000 0.56500000 0.56500000
C 41.56642374 21.76462812 33.78176410 2310 125 0 0.56500000 0.56500000 0.56500000
C 40.38702462 22.66590937 33.65778459 2311 125 0 0.56500000 0.56500000 0.56500000
C 39.23315754 22.27306683 34.62203919 2312 125 0 0.56500000 0.56500000 0.56500000
H 41.12829816 20.29078121 28.42733271 2313 125 0 1.00000000 1.00000000 1.00000000
H 42.10242200 19.07559933 29.28527501 2314 125 0 1.00000000 1.00000000 1.00000000
H 42.92095279 20.10500749 28.09642608 2315 125 0 1.00000000 1.00000000 1.00000000
H 42.39753917 22.04332223 29.64017133 2316 125 0 1.00000000 1.00000000 1.00000000
H 43.60731236 20.96077578 30.19830009 2317 125 0 1.00000000 1.00000000 1.00000000
H 42.17124353 19.83871262 31.78058052 2318 125 0 1.00000000 1.00000000 1.00000000
H 40.76505518 20.73410002 31.43242630 2319 125 0 1.00000000 1.00000000 1.00000000
H 42.12278991 22.83931845 32.00121962 2320 125 0 1.00000000 1.00000000 1.00000000
H 43.40156700 21.79391519 32.55306808 2321 125 0 1.00000000 1.00000000 1.00000000
H 42.06586063 22.07658692 34.67600319 2322 125 0 1.00000000 1.00000000 1.00000000
H 41.26584292 20.77256020 33.97761026 2323 125 0 1.00000000 1.00000000 1.00000000
H 39.89882350 22.50560893 32.68040500 2324 125 0 1.00000000 1.00000000 1.00000000
H 40.65694313 23.73286778 33.79456758 2325 125 0 1.00000000 1.00000000 1.00000000
H 38.32316274 22.84602176 34.33188893 2326 125 0 1.00000000 1.00000000 1.00000000
H 39.53415423 22.50931458 35.64146837 2327 125 0 1.00000000 1.00000000 1.00000000
H 39.01343000 21.23649080 34.61347008 2328 125 0 1.00000000 1.00000000 1.00000000
C 27.87726102 7.93271157 9.33361455 2329 126 0 0.56500000 0.56500000 0.56500000
C 26.62209357 8.46510641 8.58973243 2330 126 0 0.56500000 0.56500000 0.56500000
C 25.95297946 7.30169017 7.87108600 2331 126 0 0.56500000 0.56500000 0.56500000
C 25.06337067 6.45157482 8.77131588 2332 126 0 0.56500000 0.56500000 0.56500000
C 24.65467442 5.16342581 8.14507498 2333 126 0 0.56500000 0.56500000 0.56500000
C 23.79299971 4.06179624 8.67188441 2334 126 0 0.56500000 0.56500000 0.56500000
C 24.52027683 3.41994078 9.82322120 2335 126 0 0.56500000 0.56500000 0.56500000
H 27.63674538 7.07770505 9.92372509 2336 126 0 1.00000000 1.00000000 1.00000000
H 28.32156509 8.69472713 9.97651510 2337 126 0 1.00000000 1.00000000 1.00000000
H 28.55150088 7.44433054 8.67957178 2338 126 0 1.00000000 1.00000000 1.00000000
H 26.98741944 9.10846037 7.76706946 2339 126 0 1.00000000 1.00000000 1.00000000
H 25.94569874 8.92662416 9.23445552 2340 126 0 1.00000000 1.00000000 1.00000000
H 26.76435317 6.67404973 7.36492092 2341 126 0 1.00000000 1.00000000 1.00000000
H 25.41069513 7.69490710 7.04907099 2342 126 0 1.00000000 1.00000000 1.00000000
H 24.19537767 7.08891264 8.78260626 2343 126 0 1.00000000 1.00000000 1.00000000
H 25.36410724 6.40959743 9.78878497 2344 126 0 1.00000000 1.00000000 1.00000000
H 25.53267903 4.58000006 7.81172728 2345 126 0 1.00000000 1.00000000 1.00000000
H 24.24338489 5.55576810 7.13056949 2346 126 0 1.00000000 1.00000000 1.00000000
H 23.58608054 3.42537266 7.79522026 2347 126 0 1.00000000 1.00000000 1.00000000
H 22.79711735 4.29157933 8.93945100 2348 126 0 1.00000000 1.00000000 1.00000000
H 24.56565106 4.09339622 10.62266736 2349 126 0 1.00000000 1.00000000 1.00000000
H 25.56474456 3.26560467 9.64178900 2350 126 0 1.00000000 1.00000000 1.00000000
H 24.04802469 2.50342651 10.14294423 2351 126 0 1.00000000 1.00000000 1.00000000
C 54.80640410 18.41444557 36.62899738 2352 127 0 0.56500000 0.56500000 0.56500000
C 53.55006677 17.93129355 35.88736803 2353 127 0 0.56500000 0.56500000 0.56500000
C 52.76105472 16.74618766 36.57958102 2354 127 0 0.56500000 0.56500000 0.56500000
C 51.34829414 16.44985439 36.02947731 2355 127 0 0.56500000 0.56500000 0.56500000
C 50.96107023 16.54250626 34.56678897 2356 127 0 0.56500000 0.56500000 0.56500000
C 49.53930939 16.14496639 34.27210983 2357 127 0 0.56500000 0.56500000 0.56500000
C 49.38602929 16.00500081 32.74371748 2358 127 0 0.56500000 0.56500000 0.56500000
H 55.56497403 17.70603595 36.81323416 2359 127 0 1.00000000 1.00000000 1.00000000
H 54.47983456 18.90694663 37.54440221 2360 127 0 1.00000000 1.00000000 1.00000000
H 55.23783038 19.21218960 36.05300467 2361 127 0 1.00000000 1.00000000 1.00000000
H 53.82037755 17.55655500 34.87205768 2362 127 0 1.00000000 1.00000000 1.00000000
H 52.81313159 18.78300438 35.86305855 2363 127 0 1.00000000 1.00000000 1.00000000
H 52.71373632 16.85740760 37.65277020 2364 127 0 1.00000000 1.00000000 1.00000000
H 53.39934734 15.88021495 36.39757399 2365 127 0 1.00000000 1.00000000 1.00000000
H 50.68397884 17.03783029 36.60215455 2366 127 0 1.00000000 1.00000000 1.00000000
H 51.08139578 15.37239682 36.37983900 2367 127 0 1.00000000 1.00000000 1.00000000
H 51.60462422 15.81000258 34.02317035 2368 127 0 1.00000000 1.00000000 1.00000000
H 51.11714042 17.44178907 34.02474996 2369 127 0 1.00000000 1.00000000 1.00000000
H 48.92970579 16.94475268 34.65277447 2370 127 0 1.00000000 1.00000000 1.00000000
H 49.43682728 15.15571183 34.74535332 2371 127 0 1.00000000 1.00000000 1.00000000
H 49.70309208 15.02505660 32.36534631 2372 127 0 1.00000000 1.00000000 1.00000000
H 49.97709714 16.75561525 32.32535853 2373 127 0 1.00000000 1.00000000 1.00000000
H 48.41041817 16.13186637 32.32639260 2374 127 0 1.00000000 1.00000000 1.00000000
C 30.77601054 30.90800408 8.40681209 2375 128 0 0.56500000 0.56500000 0.56500000
C 30.64396971 32.19580667 9.28331041 2376 128 0 0.56500000 0.56500000 0.56500000
C 31.60157559 32.18782423 10.47169533 2377 128 0 0.56500000 0.56500000 0.56500000
C 31.32717327 31.15406669 11.55921190 2378 128 0 0.56500000 0.56500000 0.56500000
C 32.25596791 31.50207241 12.69165735 2379 128 0 0.56500000 0.56500000 0.56500000
C 32.07846354 30.53984870 13.92303600 2380 128 0 0.56500000 0.56500000 0.56500000
C 32.96083894 30.96232911 15.06434120 2381 128 0 0.56500000 0.56500000 0.56500000
H 30.34911255 30.02374180 8.89982583 2382 128 0 1.00000000 1.00000000 1.00000000
H 31.85277230 30.57779226 8.26502832 2383 128 0 1.00000000 1.00000000 1.00000000
H 30.28013218 31.14540503 7.50442339 2384 128 0 1.00000000 1.00000000 1.00000000
H 29.58664885 32.37095376 9.63565444 2385 128 0 1.00000000 1.00000000 1.00000000
H 30.81121216 33.06055760 8.65373419 2386 128 0 1.00000000 1.00000000 1.00000000
H 31.78924020 33.14243906 10.99256004 2387 128 0 1.00000000 1.00000000 1.00000000
H 32.64897928 31.98356731 10.13964392 2388 128 0 1.00000000 1.00000000 1.00000000
H 31.48066149 30.15385127 11.22112343 2389 128 0 1.00000000 1.00000000 1.00000000
H 30.25356150 31.19677440 11.99457621 2390 128 0 1.00000000 1.00000000 1.00000000
H 32.16488033 32.58895908 13.07002780 2391 128 0 1.00000000 1.00000000 1.00000000
H 33.26488145 31.47291626 12.38721530 2392 128 0 1.00000000 1.00000000 1.00000000
H 32.23876883 29.52611090 13.54106544 2393 128 0 1.00000000 1.00000000 1.00000000
H 31.01358995 30.66902689 14.09693889 2394 128 0 1.00000000 1.00000000 1.00000000
H 34.02741290 30.98865109 14.93185293 2395 128 0 1.00000000 1.00000000 1.00000000
H 32.95540283 30.41708283 16.00144764 2396 128 0 1.00000000 1.00000000 1.00000000
H 32.74256806 32.10599601 15.15064774 2397 128 0 1.00000000 1.00000000 1.00000000
C 23.97074363 10.83614809 45.89466973 2398 129 0 0.56500000 0.56500000 0.56500000
C 24.33794758 9.73511215 44.90518392 2399 129 0 0.56500000 0.56500000 0.56500000
C 24.62841475 10.25013259 43.45325137 2400 129 0 0.56500000 0.56500000 0.56500000
C 25.32547685 9.19140703 42.69871323 2401 129 0 0.56500000 0.56500000 0.56500000
C 25.73666031 9.82663960 41.30671192 2402 129 0 0.56500000 0.56500000 0.56500000
C 26.41487837 8.96166488 40.28326330 2403 129 0 0.56500000 0.56500000 0.56500000
C 26.46472592 9.50248881 38.86695097 2404 129 0 0.56500000 0.56500000 0.56500000
H 24.81203851 11.54132720 45.90496046 2405 129 0 1.00000000 1.00000000 1.00000000
H 23.96450737 10.40962411 46.89112626 2406 129 0 1.00000000 1.00000000 1.00000000
H 23.03851252 11.33480837 45.63661409 2407 129 0 1.00000000 1.00000000 1.00000000
H 23.49402250 9.04238511 44.85625281 2408 129 0 1.00000000 1.00000000 1.00000000
H 25.17474810 9.02633379 45.12005865 2409 129 0 1.00000000 1.00000000 1.00000000
H 25.31409340 11.10986948 43.53424401 2410 129 0 1.00000000 1.00000000 1.00000000
H 23.72352517 10.61975367 43.00533184 2411 129 0 1.00000000 1.00000000 1.00000000
H 24.69249213 8.38229853 42.60402782 2412 129 0 1.00000000 1.00000000 1.00000000
H 26.30095272 8.92897035 43.26758571 2413 129 0 1.00000000 1.00000000 1.00000000
H 26.34075117 10.63275155 41.53294358 2414 129 0 1.00000000 1.00000000 1.00000000
H 24.85154206 10.33983210 40.90321111 2415 129 0 1.00000000 1.00000000 1.00000000
H 26.11186845 7.89033429 40.35466891 2416 129 0 1.00000000 1.00000000 1.00000000
H 27.46889094 8.87347448 40.54055470 2417 129 0 1.00000000 1.00000000 1.00000000
H 27.06933589 8.83509265 38.24614165 2418 129 0 1.00000000 1.00000000 1.00000000
H 26.98997875 10.43253450 38.91487607 2419 129 0 1.00000000 1.00000000 1.00000000
H 25.50416503 9.64191053 38.48540380 2420 129 0 1.00000000 1.00000000 1.00000000
C 54.22466861 21.21921045 25.53896729 2421 130 0 0.56500000 0.56500000 0.56500000
C 52.90180263 20.92533393 24.78058555 2422 130 0 0.56500000 0.56500000 0.56500000
C 51.63808551 21.73686799 25.00821381 2423 130 0 0.56500000 0.56500000 0.56500000
C 50.94542232 21.75270856 26.38114286 2424 130 0 0.56500000 0.56500000 0.56500000
C 50.66463520 20.33602064 26.71075217 2425 130 0 0.56500000 0.56500000 0.56500000
C 50.00067856 20.11898812 28.08742214 2426 130 0 0.56500000 0.56500000 0.56500000
C 51.09355025 20.02571280 29.14836645 2427 130 0 0.56500000 0.56500000 0.56500000
H 54.05834032 21.14915088 26.60129117 2428 130 0 1.00000000 1.00000000 1.00000000
H 54.63444884 22.20094401 25.33789988 2429 130 0 1.00000000 1.00000000 1.00000000
H 54.94152291 20.38884319 25.40261319 2430 130 0 1.00000000 1.00000000 1.00000000
H 52.80329958 19.84909610 24.89542714 2431 130 0 1.00000000 1.00000000 1.00000000
H 53.12270797 20.99799501 23.67105607 2432 130 0 1.00000000 1.00000000 1.00000000
H 50.84503045 21.33538238 24.31818265 2433 130 0 1.00000000 1.00000000 1.00000000
H 51.88358178 22.75699160 24.69031177 2434 130 0 1.00000000 1.00000000 1.00000000
H 50.04451466 22.33826419 26.35261030 2435 130 0 1.00000000 1.00000000 1.00000000
H 51.52033152 22.28377623 27.16142387 2436 130 0 1.00000000 1.00000000 1.00000000
H 51.66189855 19.83260398 26.74643723 2437 130 0 1.00000000 1.00000000 1.00000000
H 50.16443286 19.87931867 25.84811054 2438 130 0 1.00000000 1.00000000 1.00000000
H 49.34313911 19.23255425 28.05964341 2439 130 0 1.00000000 1.00000000 1.00000000
H 49.35180213 21.01544774 28.32351736 2440 130 0 1.00000000 1.00000000 1.00000000
H 51.50388523 21.06554360 29.16327889 2441 130 0 1.00000000 1.00000000 1.00000000
H 51.87563159 19.32276270 28.91904842 2442 130 0 1.00000000 1.00000000 1.00000000
H 50.71898613 19.66578407 30.14416208 2443 130 0 1.00000000 1.00000000 1.00000000
C 36.17089266 47.20987870 27.05032043 2444 131 0 0.56500000 0.56500000 0.56500000
C 35.00645639 46.21989725 26.89040628 2445 131 0 0.56500000 0.56500000 0.56500000
C 33.71589994 46.64524124 27.47066837 2446 131 0 0.56500000 0.56500000 0.56500000
C 33.41049477 46.02465952 28.81606431 2447 131 0 0.56500000 0.56500000 0.56500000
C 31.93340799 45.79812473 29.15026883 2448 131 0 0.56500000 0.56500000 0.56500000
C 31.88101783 45.40973801 30.64966463 2449 131 0 0.56500000 0.56500000 0.56500000
C 30.52379034 45.05915294 31.20689820 2450 131 0 0.56500000 0.56500000 0.56500000
H 36.63014485 47.17550064 28.02970403 2451 131 0 1.00000000 1.00000000 1.00000000
H 35.77947585 48.17629115 26.99634616 2452 131 0 1.00000000 1.00000000 1.00000000
H 36.93309091 47.04021561 26.24303366 2453 131 0 1.00000000 1.00000000 1.00000000
H 35.13738940 45.24205465 27.31485579 2454 131 0 1.00000000 1.00000000 1.00000000
H 34.75496305 46.08456716 25.82467064 2455 131 0 1.00000000 1.00000000 1.00000000
H 32.90944983 46.34016159 26.80056848 2456 131 0 1.00000000 1.00000000 1.00000000
H 33.59180063 47.70964870 27.49810961 2457 131 0 1.00000000 1.00000000 1.00000000
H 33.96216601 46.65767858 29.57039502 2458 131 0 1.00000000 1.00000000 1.00000000
H 33.86576455 44.99470938 28.82763402 2459 131 0 1.00000000 1.00000000 1.00000000
H 31.58892369 44.95063801 28.53393676 2460 131 0 1.00000000 1.00000000 1.00000000
H 31.23515341 46.65838041 28.91647661 2461 131 0 1.00000000 1.00000000 1.00000000
H 32.34451007 46.20662452 31.18400025 2462 131 0 1.00000000 1.00000000 1.00000000
H 32.68883763 44.63056864 30.69868221 2463 131 0 1.00000000 1.00000000 1.00000000
H 30.64090471 44.55425578 32.15437053 2464 131 0 1.00000000 1.00000000 1.00000000
H 29.99047134 44.37405543 30.56294482 2465 131 0 1.00000000 1.00000000 1.00000000
H 29.80858507 45.88206884 31.28409738 2466 131 0 1.00000000 1.00000000 1.00000000
C 18.73261548 22.78657581 16.61155873 2467 132 0 0.56500000 0.56500000 0.56500000
C 19.27985774 24.12997548 17.11175601 2468 132 0 0.56500000 0.56500000 0.56500000
C 20.68634419 24.51148157 16.69778781 2469 132 0 0.56500000 0.56500000 0.56500000
C 21.19923881 25.82056023 17.28380279 2470 132 0 0.56500000 0.56500000 0.56500000
C 22.64761461 26.05069800 16.85794042 2471 132 0 0.56500000 0.56500000 0.56500000
C 23.26766037 27.33745102 17.48936498 2472 132 0 0.56500000 0.56500000 0.56500000
C 24.68837491 27.61559650 17.04313326 2473 132 0 0.56500000 0.56500000 0.56500000
H 17.81603729 22.46338418 17.10267173 2474 132 0 1.00000000 1.00000000 1.00000000
H 19.55091500 22.03241441 16.64724764 2475 132 0 1.00000000 1.00000000 1.00000000
H 18.51909056 22.88614455 15.53455411 2476 132 0 1.00000000 1.00000000 1.00000000
H 19.30838121 24.03940318 18.20459632 2477 132 0 1.00000000 1.00000000 1.00000000
H 18.57776612 24.93406562 16.91533615 2478 132 0 1.00000000 1.00000000 1.00000000
H 20.84039660 24.37513588 15.61277221 2479 132 0 1.00000000 1.00000000 1.00000000
H 21.31125599 23.59053748 17.03954166 2480 132 0 1.00000000 1.00000000 1.00000000
H 21.14633983 25.82957415 18.38452407 2481 132 0 1.00000000 1.00000000 1.00000000
H 20.66105379 26.65454366 16.85440278 2482 132 0 1.00000000 1.00000000 1.00000000
H 22.80064142 26.12779725 15.67233396 2483 132 0 1.00000000 1.00000000 1.00000000
H 23.29469794 25.21436876 17.07585087 2484 132 0 1.00000000 1.00000000 1.00000000
H 23.24732678 27.20523236 18.57575802 2485 132 0 1.00000000 1.00000000 1.00000000
H 22.62395635 28.26643157 17.43345222 2486 132 0 1.00000000 1.00000000 1.00000000
H 25.26766776 26.67598848 17.11672903 2487 132 0 1.00000000 1.00000000 1.00000000
H 25.32582861 28.28410910 17.61347094 2488 132 0 1.00000000 1.00000000 1.00000000
H 24.71208511 27.89454222 15.95088861 2489 132 0 1.00000000 1.00000000 1.00000000
C 14.57027007 43.68727409 18.88085573 2490 133 0 0.56500000 0.56500000 0.56500000
C 15.52194958 43.07050046 19.87483456 2491 133 0 0.56500000 0.56500000 0.56500000
C 16.83592330 43.95559369 20.02692478 2492 133 0 0.56500000 0.56500000 0.56500000
C 17.84202646 43.61691057 18.94192544 2493 133 0 0.56500000 0.56500000 0.56500000
C 19.19744956 44.32362539 19.34762841 2494 133 0 0.56500000 0.56500000 0.56500000
C 20.21481327 44.26056131 18.20913103 2495 133 0 0.56500000 0.56500000 0.56500000
C 21.50945681 45.02574457 18.45668768 2496 133 0 0.56500000 0.56500000 0.56500000
H 14.11981859 44.61382848 19.23593879 2497 133 0 1.00000000 1.00000000 1.00000000
H 13.73942387 43.03176390 18.64325937 2498 133 0 1.00000000 1.00000000 1.00000000
H 15.03576291 43.84574083 17.93841535 2499 133 0 1.00000000 1.00000000 1.00000000
H 15.71960236 42.03771279 19.66254356 2500 133 0 1.00000000 1.00000000 1.00000000
H 14.99308120 43.07877519 20.86256818 2501 133 0 1.00000000 1.00000000 1.00000000
H 17.36070210 43.78578485 21.00199889 2502 133 0 1.00000000 1.00000000 1.00000000
H 16.47950693 44.96701828 20.06469050 2503 133 0 1.00000000 1.00000000 1.00000000
H 17.49932271 44.09802535 17.99493714 2504 133 0 1.00000000 1.00000000 1.00000000
H 17.93897608 42.50045850 18.75463913 2505 133 0 1.00000000 1.00000000 1.00000000
H 19.62176208 43.85199803 20.24116888 2506 133 0 1.00000000 1.00000000 1.00000000
H 18.97643601 45.36148430 19.71617721 2507 133 0 1.00000000 1.00000000 1.00000000
H 19.86054585 44.64686587 17.22175606 2508 133 0 1.00000000 1.00000000 1.00000000
H 20.44744679 43.20210953 17.94794994 2509 133 0 1.00000000 1.00000000 1.00000000
H 21.36026948 46.03724443 18.63027959 2510 133 0 1.00000000 1.00000000 1.00000000
H 22.07549679 44.95173078 17.55350810 2511 133 0 1.00000000 1.00000000 1.00000000
H 22.04721636 44.63347729 19.24293179 2512 133 0 1.00000000 1.00000000 1.00000000
C 49.88613924 16.04526022 28.46535332 2513 134 0 0.56500000 0.56500000 0.56500000
C 49.39066711 16.32009190 27.10527224 2514 134 0 0.56500000 0.56500000 0.56500000
C 48.58176798 15.18622247 26.45612589 2515 134 0 0.56500000 0.56500000 0.56500000
C 48.26736553 15.51426249 24.98644579 2516 134 0 0.56500000 0.56500000 0.56500000
C 46.89464245 14.91191057 24.55354626 2517 134 0 0.56500000 0.56500000 0.56500000
C 46.88116218 13.38160723 24.36691683 2518 134 0 0.56500000 0.56500000 0.56500000
C 45.46130174 12.74044345 24.40143403 2519 134 0 0.56500000 0.56500000 0.56500000
H 50.88947239 15.66549540 28.46294978 2520 134 0 1.00000000 1.00000000 1.00000000
H 49.33020633 15.32118308 29.08607689 2521 134 0 1.00000000 1.00000000 1.00000000
H 49.87062981 16.94228199 29.10129961 2522 134 0 1.00000000 1.00000000 1.00000000
H 50.22068684 16.52283338 26.39528421 2523 134 0 1.00000000 1.00000000 1.00000000
H 48.74168331 17.16776508 27.12113470 2524 134 0 1.00000000 1.00000000 1.00000000
H 47.57499246 15.12342993 26.94600885 2525 134 0 1.00000000 1.00000000 1.00000000
H 49.00375720 14.14068513 26.51656850 2526 134 0 1.00000000 1.00000000 1.00000000
H 49.10818744 15.20560846 24.40579193 2527 134 0 1.00000000 1.00000000 1.00000000
H 48.07861242 16.56645155 24.86339987 2528 134 0 1.00000000 1.00000000 1.00000000
H 46.50219033 15.36621006 23.66791657 2529 134 0 1.00000000 1.00000000 1.00000000
H 46.20808660 15.20933452 25.32533712 2530 134 0 1.00000000 1.00000000 1.00000000
H 47.47578364 12.87069360 25.14581468 2531 134 0 1.00000000 1.00000000 1.00000000
H 47.38763908 13.11247709 23.42666981 2532 134 0 1.00000000 1.00000000 1.00000000
H 44.81632423 13.04792322 23.49148897 2533 134 0 1.00000000 1.00000000 1.00000000
H 44.94401192 13.16984624 25.27667573 2534 134 0 1.00000000 1.00000000 1.00000000
H 45.58685857 11.64580848 24.57122118 2535 134 0 1.00000000 1.00000000 1.00000000
C 26.18254546 31.56186377 -4.69864503 2536 135 0 0.56500000 0.56500000 0.56500000
C 26.67690247 30.21415791 -4.22686873 2537 135 0 0.56500000 0.56500000 0.56500000
C 27.39923539 29.42870987 -5.37490938 2538 135 0 0.56500000 0.56500000 0.56500000
C 28.01950918 28.22502653 -4.75884861 2539 135 0 0.56500000 0.56500000 0.56500000
C 28.74940825 27.41535358 -5.79944758 2540 135 0 0.56500000 0.56500000 0.56500000
C 29.67032902 26.30249427 -5.23274791 2541 135 0 0.56500000 0.56500000 0.56500000
C 30.99014203 26.93024262 -4.62954885 2542 135 0 0.56500000 0.56500000 0.56500000
H 26.99861404 32.30155896 -4.77191404 2543 135 0 1.00000000 1.00000000 1.00000000
H 25.62218106 31.99749367 -3.89268357 2544 135 0 1.00000000 1.00000000 1.00000000
H 25.67343287 31.37292772 -5.64072737 2545 135 0 1.00000000 1.00000000 1.00000000
H 25.84996423 29.66127196 -3.90871877 2546 135 0 1.00000000 1.00000000 1.00000000
H 27.35021373 30.15653088 -3.39671545 2547 135 0 1.00000000 1.00000000 1.00000000
H 28.11650292 30.07448555 -5.87986548 2548 135 0 1.00000000 1.00000000 1.00000000
H 26.65917800 29.10483281 -6.08589709 2549 135 0 1.00000000 1.00000000 1.00000000
H 27.26728414 27.53985161 -4.41360647 2550 135 0 1.00000000 1.00000000 1.00000000
H 28.76544148 28.52936995 -4.00948437 2551 135 0 1.00000000 1.00000000 1.00000000
H 29.31009726 28.04578550 -6.43998817 2552 135 0 1.00000000 1.00000000 1.00000000
H 27.99267711 27.06777604 -6.50669709 2553 135 0 1.00000000 1.00000000 1.00000000
H 29.91574945 25.54520699 -6.00018544 2554 135 0 1.00000000 1.00000000 1.00000000
H 29.17273276 25.68088903 -4.42178730 2555 135 0 1.00000000 1.00000000 1.00000000
H 31.56517845 26.20506505 -3.99369969 2556 135 0 1.00000000 1.00000000 1.00000000
H 30.76866496 27.77875740 -4.03754366 2557 135 0 1.00000000 1.00000000 1.00000000
H 31.62444708 27.29563388 -5.43224505 2558 135 0 1.00000000 1.00000000 1.00000000
C 44.79601164 36.70985620 30.59958582 2559 136 0 0.56500000 0.56500000 0.56500000
C 45.63563379 37.91113524 31.21241582 2560 136 0 0.56500000 0.56500000 0.56500000
C 45.33313045 39.24168688 30.59067165 2561 136 0 0.56500000 0.56500000 0.56500000
C 43.87323199 39.76469204 30.67776955 2562 136 0 0.56500000 0.56500000 0.56500000
C 43.69891305 41.06639479 29.94225215 2563 136 0 0.56500000 0.56500000 0.56500000
C 42.24304144 41.61498625 30.05065686 2564 136 0 0.56500000 0.56500000 0.56500000
C 42.01380739 42.93994713 29.51034604 2565 136 0 0.56500000 0.56500000 0.56500000
H 43.76062294 36.64619869 30.92886786 2566 136 0 1.00000000 1.00000000 1.00000000
H 45.30357309 35.78712187 30.93992676 2567 136 0 1.00000000 1.00000000 1.00000000
H 44.84800315 36.90174014 29.50167891 2568 136 0 1.00000000 1.00000000 1.00000000
H 46.68960033 37.67933462 31.06417492 2569 136 0 1.00000000 1.00000000 1.00000000
H 45.42057065 37.94534101 32.32810881 2570 136 0 1.00000000 1.00000000 1.00000000
H 45.61175760 39.38122184 29.57677714 2571 136 0 1.00000000 1.00000000 1.00000000
H 45.95905251 39.90321982 31.10297143 2572 136 0 1.00000000 1.00000000 1.00000000
H 43.56758497 39.83591581 31.67677571 2573 136 0 1.00000000 1.00000000 1.00000000
H 43.11850286 39.05717541 30.33316013 2574 136 0 1.00000000 1.00000000 1.00000000
H 43.82770680 40.91371586 28.81532283 2575 136 0 1.00000000 1.00000000 1.00000000
H 44.39537587 41.82597173 30.29758964 2576 136 0 1.00000000 1.00000000 1.00000000
H 42.01169229 41.56076603 31.11577193 2577 136 0 1.00000000 1.00000000 1.00000000
H 41.57688781 40.92048069 29.51844185 2578 136 0 1.00000000 1.00000000 1.00000000
H 42.77641579 43.54809483 30.05278624 2579 136 0 1.00000000 1.00000000 1.00000000
H 41.05785936 43.36103770 29.90751066 2580 136 0 1.00000000 1.00000000 1.00000000
H 42.08196281 42.89997461 28.43413067 2581 136 0 1.00000000 1.00000000 1.00000000
C 21.07010322 36.03497202 40.59557793 2582 137 0 0.56500000 0.56500000 0.56500000
C 20.42220896 34.71484727 40.31404013 2583 137 0 0.56500000 0.56500000 0.56500000
C 21.44051229 33.60595863 39.89185507 2584 137 0 0.56500000 0.56500000 0.56500000
C 22.21254019 33.86140741 38.62003593 2585 137 0 0.56500000 0.56500000 0.56500000
C 23.14489765 32.74146883 38.23060561 2586 137 0 0.56500000 0.56500000 0.56500000
C 24.04756597 32.14672685 39.27948360 2587 137 0 0.56500000 0.56500000 0.56500000
C 24.97331833 33.11072491 39.98060860 2588 137 0 0.56500000 0.56500000 0.56500000
H 20.36418976 36.89387761 40.65711672 2589 137 0 1.00000000 1.00000000 1.00000000
H 21.71585278 36.36909758 39.77562583 2590 137 0 1.00000000 1.00000000 1.00000000
H 21.77218926 35.98781076 41.41266484 2591 137 0 1.00000000 1.00000000 1.00000000
H 19.66530373 34.79288473 39.52131636 2592 137 0 1.00000000 1.00000000 1.00000000
H 19.85223347 34.38280891 41.18837485 2593 137 0 1.00000000 1.00000000 1.00000000
H 20.79744649 32.70869839 39.79408975 2594 137 0 1.00000000 1.00000000 1.00000000
H 22.17680381 33.42845685 40.71191736 2595 137 0 1.00000000 1.00000000 1.00000000
H 22.74834043 34.78372058 38.79646400 2596 137 0 1.00000000 1.00000000 1.00000000
H 21.52230323 34.06696744 37.77050113 2597 137 0 1.00000000 1.00000000 1.00000000
H 23.78177447 33.08758008 37.38748271 2598 137 0 1.00000000 1.00000000 1.00000000
H 22.55552728 31.92463880 37.75735129 2599 137 0 1.00000000 1.00000000 1.00000000
H 24.64358543 31.35778618 38.75401857 2600 137 0 1.00000000 1.00000000 1.00000000
H 23.46045614 31.61628649 40.01790182 2601 137 0 1.00000000 1.00000000 1.00000000
H 25.76825387 32.61040231 40.53737555 2602 137 0 1.00000000 1.00000000 1.00000000
H 24.49208691 33.78683984 40.69294111 2603 137 0 1.00000000 1.00000000 1.00000000
H 25.43960030 33.75779945 39.25525987 2604 137 0 1.00000000 1.00000000 1.00000000
C 19.75216642 24.84050293 29.30947568 2605 138 0 0.56500000 0.56500000 0.56500000
C 20.80375182 24.35997596 28.28989362 2606 138 0 0.56500000 0.56500000 0.56500000
C 21.03304730 25.26265301 27.03965293 2607 138 0 0.56500000 0.56500000 0.56500000
C 22.02579020 24.68011613 26.02251368 2608 138 0 0.56500000 0.56500000 0.56500000
C 22.41994652 25.71884893 24.97813372 2609 138 0 0.56500000 0.56500000 0.56500000
C 23.33348668 25.24977770 23.86749547 2610 138 0 0.56500000 0.56500000 0.56500000
C 22.60484471 24.45317336 22.79430729 2611 138 0 0.56500000 0.56500000 0.56500000
H 19.94764775 25.84529320 29.66158203 2612 138 0 1.00000000 1.00000000 1.00000000
H 19.76958145 24.18388427 30.20273243 2613 138 0 1.00000000 1.00000000 1.00000000
H 18.70277373 24.81434233 28.93778556 2614 138 0 1.00000000 1.00000000 1.00000000
H 20.70170981 23.28581724 28.08649729 2615 138 0 1.00000000 1.00000000 1.00000000
H 21.68358443 24.46814807 28.90462544 2616 138 0 1.00000000 1.00000000 1.00000000
H 21.25907524 26.34254470 27.22275798 2617 138 0 1.00000000 1.00000000 1.00000000
H 20.00220431 25.41366921 26.57058306 2618 138 0 1.00000000 1.00000000 1.00000000
H 21.56063553 23.90395969 25.44983292 2619 138 0 1.00000000 1.00000000 1.00000000
H 22.86559423 24.13052583 26.46295088 2620 138 0 1.00000000 1.00000000 1.00000000
H 22.97624336 26.52128667 25.50777876 2621 138 0 1.00000000 1.00000000 1.00000000
H 21.55415763 26.16726070 24.50053215 2622 138 0 1.00000000 1.00000000 1.00000000
H 24.05905277 24.57091883 24.32197346 2623 138 0 1.00000000 1.00000000 1.00000000
H 23.91055456 26.02873373 23.36170897 2624 138 0 1.00000000 1.00000000 1.00000000
H 21.81784625 25.11647085 22.30717682 2625 138 0 1.00000000 1.00000000 1.00000000
H 22.06437585 23.65223986 23.18991958 2626 138 0 1.00000000 1.00000000 1.00000000
H 23.21748474 24.04064275 21.98801019 2627 138 0 1.00000000 1.00000000 1.00000000
C 36.28198303 45.73450382 -6.74999581 2628 139 0 0.56500000 0.56500000 0.56500000
C 35.49865103 45.18334037 -5.52133771 2629 139 0 0.56500000 0.56500000 0.56500000
C 34.04466317 45.58639091 -5.42199424 2630 139 0 0.56500000 0.56500000 0.56500000
C 33.29907894 45.29623792 -4.12711214 2631 139 0 0.56500000 0.56500000 0.56500000
C 33.99208610 46.04701662 -2.84017233 2632 139 0 0.56500000 0.56500000 0.56500000
C 33.19714895 45.76761736 -1.47973158 2633 139 0 0.56500000 0.56500000 0.56500000
C 33.20536915 44.25997610 -1.14784667 2634 139 0 0.56500000 0.56500000 0.56500000
H 36.13595626 45.09783890 -7.64431369 2635 139 0 1.00000000 1.00000000 1.00000000
H 37.36213103 45.72731867 -6.45990843 2636 139 0 1.00000000 1.00000000 1.00000000
H 36.06326851 46.79373050 -6.99724544 2637 139 0 1.00000000 1.00000000 1.00000000
H 36.01222490 45.45742530 -4.60136354 2638 139 0 1.00000000 1.00000000 1.00000000
H 35.73552807 44.06766838 -5.51616212 2639 139 0 1.00000000 1.00000000 1.00000000
H 33.54564081 45.08762813 -6.29997967 2640 139 0 1.00000000 1.00000000 1.00000000
H 34.13961008 46.67154924 -5.60633576 2641 139 0 1.00000000 1.00000000 1.00000000
H 33.29600762 44.24402972 -3.93357818 2642 139 0 1.00000000 1.00000000 1.00000000
H 32.23268476 45.54036725 -4.21728292 2643 139 0 1.00000000 1.00000000 1.00000000
H 34.03140085 47.13508078 -3.21305710 2644 139 0 1.00000000 1.00000000 1.00000000
H 35.00884707 45.58592950 -2.88367521 2645 139 0 1.00000000 1.00000000 1.00000000
H 32.23000167 46.18776545 -1.67916513 2646 139 0 1.00000000 1.00000000 1.00000000
H 33.80233145 46.33117305 -0.74955438 2647 139 0 1.00000000 1.00000000 1.00000000
H 32.63449570 43.98284485 -0.23655737 2648 139 0 1.00000000 1.00000000 1.00000000
H 34.23610012 43.88348281 -1.02888508 2649 139 0 1.00000000 1.00000000 1.00000000
H 32.78695980 43.67263014 -1.94144690 2650 139 0 1.00000000 1.00000000 1.00000000
C 17.71483400 44.36430275 7.62158662 2651 140 0 0.56500000 0.56500000 0.56500000
C 18.13452708 45.76613605 8.17966072 2652 140 0 0.56500000 0.56500000 0.56500000
C 17.84035416 46.82682082 7.19973247 2653 140 0 0.56500000 0.56500000 0.56500000
C 17.16354472 48.09307133 7.80908770 2654 140 0 0.56500000 0.56500000 0.56500000
C 15.74485310 48.09482348 8.27451074 2655 140 0 0.56500000 0.56500000 0.56500000
C 14.73958962 47.46052387 7.38690849 2656 140 0 0.56500000 0.56500000 0.56500000
C 13.33641256 47.34956735 7.94611883 2657 140 0 0.56500000 0.56500000 0.56500000
H 16.62213352 44.32203711 7.51039406 2658 140 0 1.00000000 1.00000000 1.00000000
H 17.88371548 43.61637204 8.38540732 2659 140 0 1.00000000 1.00000000 1.00000000
H 18.19690878 44.11377451 6.64602842 2660 140 0 1.00000000 1.00000000 1.00000000
H 19.17497109 45.87050784 8.41229830 2661 140 0 1.00000000 1.00000000 1.00000000
H 17.50508619 45.90233643 9.09723571 2662 140 0 1.00000000 1.00000000 1.00000000
H 17.11260837 46.43613350 6.42695812 2663 140 0 1.00000000 1.00000000 1.00000000
H 18.78234989 47.23928902 6.66971652 2664 140 0 1.00000000 1.00000000 1.00000000
H 17.27590082 48.90626020 7.01648693 2665 140 0 1.00000000 1.00000000 1.00000000
H 17.72448319 48.54658625 8.64996651 2666 140 0 1.00000000 1.00000000 1.00000000
H 15.43112672 49.06764826 8.60374320 2667 140 0 1.00000000 1.00000000 1.00000000
H 15.72300792 47.46499464 9.19593953 2668 140 0 1.00000000 1.00000000 1.00000000
H 14.98001207 46.46756089 7.14894348 2669 140 0 1.00000000 1.00000000 1.00000000
H 14.72736802 48.13060036 6.53698497 2670 140 0 1.00000000 1.00000000 1.00000000
H 12.69824391 46.75663768 7.28579399 2671 140 0 1.00000000 1.00000000 1.00000000
H 12.82812548 48.38094615 8.06885002 2672 140 0 1.00000000 1.00000000 1.00000000
H 13.34337919 46.95821136 8.92916357 2673 140 0 1.00000000 1.00000000 1.00000000
C 16.67025358 22.51406221 42.78024958 2674 141 0 0.56500000 0.56500000 0.56500000
C 17.94795615 21.66759469 43.07308985 2675 141 0 0.56500000 0.56500000 0.56500000
C 17.69179279 20.21439716 43.55584682 2676 141 0 0.56500000 0.56500000 0.56500000
C 19.01551642 19.56307512 43.91653831 2677 141 0 0.56500000 0.56500000 0.56500000
C 18.85236004 18.31862751 44.78115630 2678 141 0 0.56500000 0.56500000 0.56500000
C 18.00623035 17.24502497 44.16647393 2679 141 0 0.56500000 0.56500000 0.56500000
C 18.15726510 15.88644712 44.81640657 2680 141 0 0.56500000 0.56500000 0.56500000
H 16.21780027 22.16240385 41.87498880 2681 141 0 1.00000000 1.00000000 1.00000000
H 16.93644090 23.58050558 42.64497668 2682 141 0 1.00000000 1.00000000 1.00000000
H 16.01628400 22.52986161 43.65503593 2683 141 0 1.00000000 1.00000000 1.00000000
H 18.46784735 22.24418175 43.78195267 2684 141 0 1.00000000 1.00000000 1.00000000
H 18.66248383 21.65578781 42.21859422 2685 141 0 1.00000000 1.00000000 1.00000000
H 17.06699118 19.70273777 42.81507847 2686 141 0 1.00000000 1.00000000 1.00000000
H 17.03182577 20.30414249 44.41403527 2687 141 0 1.00000000 1.00000000 1.00000000
H 19.65856641 20.30743807 44.58557541 2688 141 0 1.00000000 1.00000000 1.00000000
H 19.62780548 19.51054274 43.01273255 2689 141 0 1.00000000 1.00000000 1.00000000
H 18.36001622 18.65237774 45.70298166 2690 141 0 1.00000000 1.00000000 1.00000000
H 19.78187190 17.86909672 45.09890645 2691 141 0 1.00000000 1.00000000 1.00000000
H 18.33469336 17.04459690 43.14643450 2692 141 0 1.00000000 1.00000000 1.00000000
H 16.96336876 17.59775268 44.15003525 2693 141 0 1.00000000 1.00000000 1.00000000
H 17.35954116 15.28915464 44.51466728 2694 141 0 1.00000000 1.00000000 1.00000000
H 18.09433559 15.97928925 45.89671209 2695 141 0 1.00000000 1.00000000 1.00000000
H 19.20187167 15.54975180 44.44848951 2696 141 0 1.00000000 1.00000000 1.00000000
C 36.07229500 7.13448715 8.76910134 2697 142 0 0.56500000 0.56500000 0.56500000
C 35.55212343 6.83056653 7.39415520 2698 142 0 0.56500000 0.56500000 0.56500000
C 34.03268564 6.67328117 7.44915854 2699 142 0 0.56500000 0.56500000 0.56500000
C 33.25957897 7.97454257 7.44483388 2700 142 0 0.56500000 0.56500000 0.56500000
C 31.78978398 7.88685912 7.52943184 2701 142 0 0.56500000 0.56500000 0.56500000
C 31.23053473 7.80078194 6.06423460 2702 142 0 0.56500000 0.56500000 0.56500000
C 29.81104564 7.52139215 5.74398466 2703 142 0 0.56500000 0.56500000 0.56500000
H 37.13144657 7.06193162 8.75889295 2704 142 0 1.00000000 1.00000000 1.00000000
H 35.72693277 6.42884379 9.47976242 2705 142 0 1.00000000 1.00000000 1.00000000
H 35.75576896 8.08917918 9.07182641 2706 142 0 1.00000000 1.00000000 1.00000000
H 36.04472032 6.01952613 6.90605801 2707 142 0 1.00000000 1.00000000 1.00000000
H 35.75451252 7.72126232 6.74321267 2708 142 0 1.00000000 1.00000000 1.00000000
H 33.71370495 6.14330738 8.39874227 2709 142 0 1.00000000 1.00000000 1.00000000
H 33.64675801 6.10412551 6.53471188 2710 142 0 1.00000000 1.00000000 1.00000000
H 33.42539105 8.58116516 6.46627482 2711 142 0 1.00000000 1.00000000 1.00000000
H 33.62095748 8.59468547 8.29053797 2712 142 0 1.00000000 1.00000000 1.00000000
H 31.42437663 8.77242653 8.12529709 2713 142 0 1.00000000 1.00000000 1.00000000
H 31.42216713 7.09142734 8.23765303 2714 142 0 1.00000000 1.00000000 1.00000000
H 31.86172085 7.11027728 5.43798123 2715 142 0 1.00000000 1.00000000 1.00000000
H 31.50567141 8.78512329 5.61693098 2716 142 0 1.00000000 1.00000000 1.00000000
H 29.21423285 8.32469602 6.25835107 2717 142 0 1.00000000 1.00000000 1.00000000
H 29.44074712 6.59532408 6.30765385 2718 142 0 1.00000000 1.00000000 1.00000000
H 29.56740525 7.34323616 4.70503555 2719 142 0 1.00000000 1.00000000 1.00000000
C 25.50843717 28.76887115 33.85225566 2720 143 0 0.56500000 0.56500000 0.56500000
C 25.76369371 28.81568988 35.32973339 2721 143 0 0.56500000 0.56500000 0.56500000
C 24.65972477 28.28938889 36.18477022 2722 143 0 0.56500000 0.56500000 0.56500000
C 24.85334444 28.23599415 37.68347546 2723 143 0 0.56500000 0.56500000 0.56500000
C 23.62704225 27.68390360 38.44305894 2724 143 0 0.56500000 0.56500000 0.56500000
C 22.48553988 28.76851694 38.67939850 2725 143 0 0.56500000 0.56500000 0.56500000
C 21.20818146 28.30514940 39.27817511 2726 143 0 0.56500000 0.56500000 0.56500000
H 25.70926896 27.73950992 33.52245939 2727 143 0 1.00000000 1.00000000 1.00000000
H 26.25351191 29.35578833 33.30848014 2728 143 0 1.00000000 1.00000000 1.00000000
H 24.46682221 28.93985408 33.58747190 2729 143 0 1.00000000 1.00000000 1.00000000
H 25.96355641 29.79387126 35.52165007 2730 143 0 1.00000000 1.00000000 1.00000000
H 26.70173770 28.30692968 35.54516025 2731 143 0 1.00000000 1.00000000 1.00000000
H 24.34685963 27.25836702 35.81527917 2732 143 0 1.00000000 1.00000000 1.00000000
H 23.77188310 28.86079219 36.03444354 2733 143 0 1.00000000 1.00000000 1.00000000
H 25.12915040 29.24291462 37.98295995 2734 143 0 1.00000000 1.00000000 1.00000000
H 25.74821407 27.57441911 37.95162516 2735 143 0 1.00000000 1.00000000 1.00000000
H 23.89456898 27.47537832 39.45858072 2736 143 0 1.00000000 1.00000000 1.00000000
H 23.21853425 26.73262635 38.04658672 2737 143 0 1.00000000 1.00000000 1.00000000
H 22.32325165 29.16057936 37.69581521 2738 143 0 1.00000000 1.00000000 1.00000000
H 22.98645651 29.48371699 39.29255045 2739 143 0 1.00000000 1.00000000 1.00000000
H 20.41119471 29.02132443 39.03776791 2740 143 0 1.00000000 1.00000000 1.00000000
H 21.26280281 28.24978213 40.44634974 2741 143 0 1.00000000 1.00000000 1.00000000
H 20.70507398 27.50377448 38.77776374 2742 143 0 1.00000000 1.00000000 1.00000000
C 39.32543849 17.82494184 -8.75643750 2743 144 0 0.56500000 0.56500000 0.56500000
C 39.02300236 17.33983155 -7.35341835 2744 144 0 0.56500000 0.56500000 0.56500000
C 39.54292073 18.17441606 -6.23488782 2745 144 0 0.56500000 0.56500000 0.56500000
C 41.08108154 18.09545019 -6.05168753 2746 144 0 0.56500000 0.56500000 0.56500000
C 41.72625522 19.13124111 -5.13967276 2747 144 0 0.56500000 0.56500000 0.56500000
C 43.14478203 18.81502842 -4.60856289 2748 144 0 0.56500000 0.56500000 0.56500000
C 43.84166170 19.95743233 -3.94684990 2749 144 0 0.56500000 0.56500000 0.56500000
H 39.15205194 16.99221779 -9.50302055 2750 144 0 1.00000000 1.00000000 1.00000000
H 40.41271458 18.01192707 -8.94416665 2751 144 0 1.00000000 1.00000000 1.00000000
H 38.71376431 18.65710237 -9.09648226 2752 144 0 1.00000000 1.00000000 1.00000000
H 39.46069094 16.33600237 -7.24277778 2753 144 0 1.00000000 1.00000000 1.00000000
H 37.93936451 17.24789961 -7.29354934 2754 144 0 1.00000000 1.00000000 1.00000000
H 39.07876469 18.00135297 -5.20892724 2755 144 0 1.00000000 1.00000000 1.00000000
H 39.24335970 19.21067338 -6.36918380 2756 144 0 1.00000000 1.00000000 1.00000000
H 41.55698971 18.32374529 -7.02619130 2757 144 0 1.00000000 1.00000000 1.00000000
H 41.36017588 17.10118225 -5.76681788 2758 144 0 1.00000000 1.00000000 1.00000000
H 41.08198426 19.35045179 -4.26731139 2759 144 0 1.00000000 1.00000000 1.00000000
H 41.80054874 20.02169333 -5.71563131 2760 144 0 1.00000000 1.00000000 1.00000000
H 43.78837255 18.48522938 -5.46390243 2761 144 0 1.00000000 1.00000000 1.00000000
H 43.02373815 17.88070298 -4.02790533 2762 144 0 1.00000000 1.00000000 1.00000000
H 43.34027565 20.15871664 -3.00724806 2763 144 0 1.00000000 1.00000000 1.00000000
H 43.82439099 20.78258788 -4.67722303 2764 144 0 1.00000000 1.00000000 1.00000000
H 44.84087862 19.67208872 -3.60887119 2765 144 0 1.00000000 1.00000000 1.00000000
C 10.14122163 49.09693418 30.93310573 2766 145 0 0.56500000 0.56500000 0.56500000
C 9.74112192 47.73234630 30.36838626 2767 145 0 0.56500000 0.56500000 0.56500000
C 8.18645065 47.66398809 30.15503420 2768 145 0 0.56500000 0.56500000 0.56500000
C 7.64173419 46.27749212 30.32132230 2769 145 0 0.56500000 0.56500000 0.56500000
C 7.73486976 45.53392604 31.64850735 2770 145 0 0.56500000 0.56500000 0.56500000
C 7.18000918 44.12237896 31.74562713 2771 145 0 0.56500000 0.56500000 0.56500000
C 7.30450066 43.63722385 33.16165946 2772 145 0 0.56500000 0.56500000 0.56500000
H 9.74951260 49.82721428 30.19100297 2773 145 0 1.00000000 1.00000000 1.00000000
H 11.20473531 49.20711876 30.88322574 2774 145 0 1.00000000 1.00000000 1.00000000
H 9.67739194 49.45387013 31.85968611 2775 145 0 1.00000000 1.00000000 1.00000000
H 10.02077982 46.97519317 31.12508476 2776 145 0 1.00000000 1.00000000 1.00000000
H 10.22798474 47.54276104 29.38214460 2777 145 0 1.00000000 1.00000000 1.00000000
H 7.99712303 48.07795776 29.21387698 2778 145 0 1.00000000 1.00000000 1.00000000
H 7.72475410 48.38162643 30.85230945 2779 145 0 1.00000000 1.00000000 1.00000000
H 8.22087558 45.54237792 29.55855837 2780 145 0 1.00000000 1.00000000 1.00000000
H 6.61434470 46.24555386 29.94940165 2781 145 0 1.00000000 1.00000000 1.00000000
H 7.30816934 46.16922405 32.48591249 2782 145 0 1.00000000 1.00000000 1.00000000
H 8.82265248 45.47305752 31.78268211 2783 145 0 1.00000000 1.00000000 1.00000000
H 7.76538358 43.48331789 31.04102407 2784 145 0 1.00000000 1.00000000 1.00000000
H 6.12920951 43.97246100 31.50544214 2785 145 0 1.00000000 1.00000000 1.00000000
H 7.10429530 42.54852724 33.32160236 2786 145 0 1.00000000 1.00000000 1.00000000
H 6.49695200 44.06576448 33.76099069 2787 145 0 1.00000000 1.00000000 1.00000000
H 8.24431803 43.77153715 33.64283338 2788 145 0 1.00000000 1.00000000 1.00000000
C 35.73678192 31.49113758 25.70694728 2789 146 0 0.56500000 0.56500000 0.56500000
C 34.42749962 32.23180738 25.53194674 2790 146 0 0.56500000 0.56500000 0.56500000
C 34.01931622 32.54076401 24.09712358 2791 146 0 0.56500000 0.56500000 0.56500000
C 34.06943569 31.35511851 23.11631035 2792 146 0 0.56500000 0.56500000 0.56500000
C 33.21602922 30.11677960 23.68906219 2793 146 0 0.56500000 0.56500000 0.56500000
C 32.98608978 29.03573134 22.64968881 2794 146 0 0.56500000 0.56500000 0.56500000
C 32.03769411 27.97313992 23.15092345 2795 146 0 0.56500000 0.56500000 0.56500000
H 35.98470331 31.35102848 26.73047209 2796 146 0 1.00000000 1.00000000 1.00000000
H 36.59011638 31.98548125 25.21221883 2797 146 0 1.00000000 1.00000000 1.00000000
H 35.58713044 30.51230242 25.21407559 2798 146 0 1.00000000 1.00000000 1.00000000
H 34.25963080 33.11601136 26.12306197 2799 146 0 1.00000000 1.00000000 1.00000000
H 33.60749457 31.58315713 25.86040047 2800 146 0 1.00000000 1.00000000 1.00000000
H 34.59337969 33.38638509 23.84980084 2801 146 0 1.00000000 1.00000000 1.00000000
H 32.94650191 32.79592250 24.06430183 2802 146 0 1.00000000 1.00000000 1.00000000
H 35.03660310 30.92709961 23.03256523 2803 146 0 1.00000000 1.00000000 1.00000000
H 33.70310139 31.67675370 22.14335222 2804 146 0 1.00000000 1.00000000 1.00000000
H 32.26907648 30.45090217 24.07625095 2805 146 0 1.00000000 1.00000000 1.00000000
H 33.66926198 29.65610776 24.54902991 2806 146 0 1.00000000 1.00000000 1.00000000
H 33.91268316 28.45016016 22.42868400 2807 146 0 1.00000000 1.00000000 1.00000000
H 32.58118911 29.49546771 21.69890547 2808 146 0 1.00000000 1.00000000 1.00000000
H 32.37557430 27.62439704 24.17202137 2809 146 0 1.00000000 1.00000000 1.00000000
H 32.17834791 27.03381269 22.56889482 2810 146 0 1.00000000 1.00000000 1.00000000
H 31.05529337 28.38303743 23.25634901 2811 146 0 1.00000000 1.00000000 1.00000000
C 27.19410855 25.18800648 36.24063868 2812 147 0 0.56500000 0.56500000 0.56500000
C 28.68651109 25.16028594 36.31640758 2813 147 0 0.56500000 0.56500000 0.56500000
C 29.20223824 23.92754848 37.11558563 2814 147 0 0.56500000 0.56500000 0.56500000
C 30.72067819 23.73772666 36.81757304 2815 147 0 0.56500000 0.56500000 0.56500000
C 31.46448704 23.47586417 38.13850515 2816 147 0 0.56500000 0.56500000 0.56500000
C 33.02237779 23.46664420 37.96195747 2817 147 0 0.56500000 0.56500000 0.56500000
C 33.49750762 24.40146143 36.77895723 2818 147 0 0.56500000 0.56500000 0.56500000
H 26.82699147 24.29328094 35.73481873 2819 147 0 1.00000000 1.00000000 1.00000000
H 26.75185340 25.99338155 35.60300814 2820 147 0 1.00000000 1.00000000 1.00000000
H 26.79828696 25.28468711 37.26298739 2821 147 0 1.00000000 1.00000000 1.00000000
H 29.04640950 26.07543602 36.83609408 2822 147 0 1.00000000 1.00000000 1.00000000
H 29.09291993 25.16539872 35.27543575 2823 147 0 1.00000000 1.00000000 1.00000000
H 28.57854805 23.06333792 36.79350432 2824 147 0 1.00000000 1.00000000 1.00000000
H 28.95381401 23.98964108 38.21740818 2825 147 0 1.00000000 1.00000000 1.00000000
H 31.19189725 24.67518610 36.45722333 2826 147 0 1.00000000 1.00000000 1.00000000
H 30.77455703 22.90409103 36.13534158 2827 147 0 1.00000000 1.00000000 1.00000000
H 31.23960450 22.47400186 38.61177760 2828 147 0 1.00000000 1.00000000 1.00000000
H 31.27241989 24.18226955 38.89529509 2829 147 0 1.00000000 1.00000000 1.00000000
H 33.23104849 22.39770300 37.73154654 2830 147 0 1.00000000 1.00000000 1.00000000
H 33.44721604 23.71684804 38.95523332 2831 147 0 1.00000000 1.00000000 1.00000000
H 32.97852056 25.40455715 36.95733502 2832 147 0 1.00000000 1.00000000 1.00000000
H 33.06755903 24.09327129 35.83502149 2833 147 0 1.00000000 1.00000000 1.00000000
H 34.55843845 24.55502171 36.84631158 2834 147 0 1.00000000 1.00000000 1.00000000
C 21.15975955 22.58492136 -4.28560647 2835 148 0 0.56500000 0.56500000 0.56500000
C 21.63888216 23.50734552 -3.20130030 2836 148 0 0.56500000 0.56500000 0.56500000
C 23.18960943 23.25940424 -2.96155359 2837 148 0 0.56500000 0.56500000 0.56500000
C 23.66936380 24.17063481 -1.88076070 2838 148 0 0.56500000 0.56500000 0.56500000
C 25.24442653 24.37026777 -1.96603596 2839 148 0 0.56500000 0.56500000 0.56500000
C 26.04222727 23.00155803 -1.87250844 2840 148 0 0.56500000 0.56500000 0.56500000
C 27.52894207 23.11448894 -1.65208611 2841 148 0 0.56500000 0.56500000 0.56500000
H 20.02923877 22.44903994 -4.26957274 2842 148 0 1.00000000 1.00000000 1.00000000
H 21.61235768 21.60321563 -4.12443984 2843 148 0 1.00000000 1.00000000 1.00000000
H 21.44037639 22.89378750 -5.33165371 2844 148 0 1.00000000 1.00000000 1.00000000
H 21.09794196 23.39013731 -2.19967463 2845 148 0 1.00000000 1.00000000 1.00000000
H 21.59754328 24.59312708 -3.44100694 2846 148 0 1.00000000 1.00000000 1.00000000
H 23.63844908 23.52809745 -3.93196033 2847 148 0 1.00000000 1.00000000 1.00000000
H 23.37197842 22.16395674 -2.78235683 2848 148 0 1.00000000 1.00000000 1.00000000
H 23.43819184 23.60537093 -0.92642573 2849 148 0 1.00000000 1.00000000 1.00000000
H 23.28200828 25.16768104 -1.89524865 2850 148 0 1.00000000 1.00000000 1.00000000
H 25.64258351 25.11030350 -1.20058769 2851 148 0 1.00000000 1.00000000 1.00000000
H 25.52285943 24.83056436 -2.94902136 2852 148 0 1.00000000 1.00000000 1.00000000
H 25.91575359 22.32531738 -2.75323430 2853 148 0 1.00000000 1.00000000 1.00000000
H 25.67889658 22.41476508 -1.05533475 2854 148 0 1.00000000 1.00000000 1.00000000
H 28.02557501 22.19463362 -1.91066446 2855 148 0 1.00000000 1.00000000 1.00000000
H 27.88122676 23.29212512 -0.68123055 2856 148 0 1.00000000 1.00000000 1.00000000
H 27.98700943 23.93478282 -2.30110743 2857 148 0 1.00000000 1.00000000 1.00000000
C 43.09682594 33.93360516 13.16639321 2858 149 0 0.56500000 0.56500000 0.56500000
C 42.55009292 34.35596736 14.61636141 2859 149 0 0.56500000 0.56500000 0.56500000
C 43.24536699 35.53334359 15.27123661 2860 149 0 0.56500000 0.56500000 0.56500000
C 44.58581060 35.10003020 15.95045178 2861 149 0 0.56500000 0.56500000 0.56500000
C 44.47519827 34.89687795 17.42985930 2862 149 0 0.56500000 0.56500000 0.56500000
C 44.21722059 36.26356209 18.16901433 2863 149 0 0.56500000 0.56500000 0.56500000
C 44.81313320 36.32105094 19.56798728 2864 149 0 0.56500000 0.56500000 0.56500000
H 42.74697240 32.90949115 12.88360872 2865 149 0 1.00000000 1.00000000 1.00000000
H 44.17448529 33.95372781 13.11187700 2866 149 0 1.00000000 1.00000000 1.00000000
H 42.77296772 34.58945708 12.31062145 2867 149 0 1.00000000 1.00000000 1.00000000
H 42.66909194 33.38250320 15.23423672 2868 149 0 1.00000000 1.00000000 1.00000000
H 41.46052424 34.44666138 14.66090788 2869 149 0 1.00000000 1.00000000 1.00000000
H 42.56522296 36.00425343 16.04901443 2870 149 0 1.00000000 1.00000000 1.00000000
H 43.49201984 36.34114553 14.54976724 2871 149 0 1.00000000 1.00000000 1.00000000
H 45.32125162 35.94695769 15.79169303 2872 149 0 1.00000000 1.00000000 1.00000000
H 45.13366245 34.24907199 15.52168344 2873 149 0 1.00000000 1.00000000 1.00000000
H 45.35324816 34.43438862 17.81937645 2874 149 0 1.00000000 1.00000000 1.00000000
H 43.69248034 34.09106712 17.67695605 2875 149 0 1.00000000 1.00000000 1.00000000
H 43.17652036 36.54283148 18.14888771 2876 149 0 1.00000000 1.00000000 1.00000000
H 44.64441694 37.07714275 17.55311169 2877 149 0 1.00000000 1.00000000 1.00000000
H 44.53296091 37.28483766 20.00828820 2878 149 0 1.00000000 1.00000000 1.00000000
H 45.86541286 36.22366361 19.68927906 2879 149 0 1.00000000 1.00000000 1.00000000
H 44.36994942 35.54226740 20.26153455 2880 149 0 1.00000000 1.00000000 1.00000000
C 38.87790226 26.06957118 32.65924734 2881 150 0 0.56500000 0.56500000 0.56500000
C 37.74177637 25.70064681 33.61309256 2882 150 0 0.56500000 0.56500000 0.56500000
C 36.84363151 24.64083069 32.89394775 2883 150 0 0.56500000 0.56500000 0.56500000
C 35.84046277 24.03809674 33.88533398 2884 150 0 0.56500000 0.56500000 0.56500000
C 34.79106033 22.97346151 33.44956276 2885 150 0 0.56500000 0.56500000 0.56500000
C 33.72515670 23.60313124 32.51864614 2886 150 0 0.56500000 0.56500000 0.56500000
C 33.70223459 23.34234071 31.02908990 2887 150 0 0.56500000 0.56500000 0.56500000
H 39.73297557 26.60170720 33.17470484 2888 150 0 1.00000000 1.00000000 1.00000000
H 38.70765628 26.74306630 31.83579811 2889 150 0 1.00000000 1.00000000 1.00000000
H 39.12066650 25.11268016 32.23114032 2890 150 0 1.00000000 1.00000000 1.00000000
H 37.32431951 26.52760841 34.10817891 2891 150 0 1.00000000 1.00000000 1.00000000
H 38.24270905 25.05902401 34.36525954 2892 150 0 1.00000000 1.00000000 1.00000000
H 37.52509811 23.89656512 32.57947766 2893 150 0 1.00000000 1.00000000 1.00000000
H 36.33339314 25.02560157 32.01135184 2894 150 0 1.00000000 1.00000000 1.00000000
H 35.21147745 24.82124101 34.30530219 2895 150 0 1.00000000 1.00000000 1.00000000
H 36.36503359 23.65646287 34.75789330 2896 150 0 1.00000000 1.00000000 1.00000000
H 34.29528244 22.50122791 34.39067272 2897 150 0 1.00000000 1.00000000 1.00000000
H 35.36567826 22.20370085 32.96353814 2898 150 0 1.00000000 1.00000000 1.00000000
H 33.80170529 24.69608389 32.62078660 2899 150 0 1.00000000 1.00000000 1.00000000
H 32.71973444 23.32119075 32.84826063 2900 150 0 1.00000000 1.00000000 1.00000000
H 32.75628561 23.76876125 30.62693168 2901 150 0 1.00000000 1.00000000 1.00000000
H 33.73551305 22.24760058 30.73876918 2902 150 0 1.00000000 1.00000000 1.00000000
H 34.55965530 23.79068946 30.57734912 2903 150 0 1.00000000 1.00000000 1.00000000
C -4.81095668 36.69631856 -2.55500589 2904 151 0 0.56500000 0.56500000 0.56500000
C -3.87452049 35.97562535 -1.53945782 2905 151 0 0.56500000 0.56500000 0.56500000
C -4.39320508 34.64355827 -0.98212983 2906 151 0 0.56500000 0.56500000 0.56500000
C -3.73722323 34.09048370 0.32946681 2907 151 0 0.56500000 0.56500000 0.56500000
C -4.49789560 32.85100431 0.87075140 2908 151 0 0.56500000 0.56500000 0.56500000
C -3.67885418 32.01262947 1.84152580 2909 151 0 0.56500000 0.56500000 0.56500000
C -2.85746375 30.88467988 1.18279304 2910 151 0 0.56500000 0.56500000 0.56500000
H -4.38049948 37.71805227 -2.87676709 2911 151 0 1.00000000 1.00000000 1.00000000
H -5.78421391 36.84149109 -2.09940262 2912 151 0 1.00000000 1.00000000 1.00000000
H -4.95028067 36.06914330 -3.41181930 2913 151 0 1.00000000 1.00000000 1.00000000
H -3.66872368 36.72537812 -0.78970333 2914 151 0 1.00000000 1.00000000 1.00000000
H -2.92318839 35.76412448 -1.91530232 2915 151 0 1.00000000 1.00000000 1.00000000
H -4.21254322 33.84420813 -1.69119087 2916 151 0 1.00000000 1.00000000 1.00000000
H -5.42149800 34.80837989 -0.69935293 2917 151 0 1.00000000 1.00000000 1.00000000
H -3.70132818 35.00960149 1.01969415 2918 151 0 1.00000000 1.00000000 1.00000000
H -2.66742294 33.90602252 0.15593785 2919 151 0 1.00000000 1.00000000 1.00000000
H -4.79679491 32.22379433 -0.00501166 2920 151 0 1.00000000 1.00000000 1.00000000
H -5.55036014 33.10879982 1.18245758 2921 151 0 1.00000000 1.00000000 1.00000000
H -4.38244165 31.64329074 2.69896013 2922 151 0 1.00000000 1.00000000 1.00000000
H -2.96387560 32.62002468 2.46316761 2923 151 0 1.00000000 1.00000000 1.00000000
H -3.60163173 30.18538479 0.75248503 2924 151 0 1.00000000 1.00000000 1.00000000
H -2.31046805 30.22021342 1.83692031 2925 151 0 1.00000000 1.00000000 1.00000000
H -2.14592590 31.31153983 0.50641293 2926 151 0 1.00000000 1.00000000 1.00000000
C 26.80403522 41.55317958 -2.71074251 2927 152 0 0.56500000 0.56500000 0.56500000
C 26.94450239 41.13783711 -1.24609597 2928 152 0 0.56500000 0.56500000 0.56500000
C 28.23225164 40.43643326 -0.84064154 2929 152 0 0.56500000 0.56500000 0.56500000
C 28.28266197 39.97555685 0.59108273 2930 152 0 0.56500000 0.56500000 0.56500000
C 27.51531127 38.68236191 0.95717533 2931 152 0 0.56500000 0.56500000 0.56500000
C 27.75086018 38.26541721 2.40378445 2932 152 0 0.56500000 0.56500000 0.56500000
C 27.40863182 36.80404001 2.64884779 2933 152 0 0.56500000 0.56500000 0.56500000
H 26.81990835 40.70556853 -3.43435375 2934 152 0 1.00000000 1.00000000 1.00000000
H 27.65290407 42.11373308 -2.97630088 2935 152 0 1.00000000 1.00000000 1.00000000
H 25.87783884 42.05729637 -2.88637944 2936 152 0 1.00000000 1.00000000 1.00000000
H 26.14116155 40.41212833 -1.12822893 2937 152 0 1.00000000 1.00000000 1.00000000
H 26.86165886 41.98596392 -0.60093050 2938 152 0 1.00000000 1.00000000 1.00000000
H 28.99474241 41.24115633 -1.00181850 2939 152 0 1.00000000 1.00000000 1.00000000
H 28.54284294 39.62393063 -1.56142912 2940 152 0 1.00000000 1.00000000 1.00000000
H 28.12663524 40.83700478 1.32425910 2941 152 0 1.00000000 1.00000000 1.00000000
H 29.29887067 39.63054504 0.87809763 2942 152 0 1.00000000 1.00000000 1.00000000
H 27.91380362 38.03570672 0.22026525 2943 152 0 1.00000000 1.00000000 1.00000000
H 26.41888954 38.75422706 0.67730371 2944 152 0 1.00000000 1.00000000 1.00000000
H 27.10254067 38.79367581 2.97978451 2945 152 0 1.00000000 1.00000000 1.00000000
H 28.80053523 38.50062356 2.68249217 2946 152 0 1.00000000 1.00000000 1.00000000
H 26.40595252 36.53307315 2.26668179 2947 152 0 1.00000000 1.00000000 1.00000000
H 27.46045848 36.40492228 3.70076860 2948 152 0 1.00000000 1.00000000 1.00000000
H 28.05699403 36.21964195 2.00344097 2949 152 0 1.00000000 1.00000000 1.00000000
C 26.60882408 24.15776498 41.25977972 2950 153 0 0.56500000 0.56500000 0.56500000
C 27.60006527 25.01015064 40.49548760 2951 153 0 0.56500000 0.56500000 0.56500000
C 27.75830796 26.44555968 40.99977318 2952 153 0 0.56500000 0.56500000 0.56500000
C 28.94177828 27.14750653 40.36112829 2953 153 0 0.56500000 0.56500000 0.56500000
C 28.55541226 28.06569896 39.19839627 2954 153 0 0.56500000 0.56500000 0.56500000
C 29.67073679 28.80733925 38.51004108 2955 153 0 0.56500000 0.56500000 0.56500000
C 29.26998477 29.75033154 37.29279122 2956 153 0 0.56500000 0.56500000 0.56500000
H 26.64700251 23.15146123 40.98736053 2957 153 0 1.00000000 1.00000000 1.00000000
H 25.61663428 24.43737243 40.99680209 2958 153 0 1.00000000 1.00000000 1.00000000
H 26.65020018 24.16610860 42.33876362 2959 153 0 1.00000000 1.00000000 1.00000000
H 27.35744182 24.91298405 39.45501007 2960 153 0 1.00000000 1.00000000 1.00000000
H 28.61472166 24.55782871 40.62890857 2961 153 0 1.00000000 1.00000000 1.00000000
H 28.05746712 26.32893863 42.04285191 2962 153 0 1.00000000 1.00000000 1.00000000
H 26.80241934 26.99400303 40.87392997 2963 153 0 1.00000000 1.00000000 1.00000000
H 29.59055026 26.39910542 39.90812704 2964 153 0 1.00000000 1.00000000 1.00000000
H 29.50528229 27.76063644 41.08980987 2965 153 0 1.00000000 1.00000000 1.00000000
H 27.72213219 28.76097796 39.52324249 2966 153 0 1.00000000 1.00000000 1.00000000
H 28.09054395 27.35178051 38.50108039 2967 153 0 1.00000000 1.00000000 1.00000000
H 30.42376825 28.06002833 38.12645889 2968 153 0 1.00000000 1.00000000 1.00000000
H 30.22286537 29.38181840 39.21679146 2969 153 0 1.00000000 1.00000000 1.00000000
H 30.09760854 30.30152402 36.88579953 2970 153 0 1.00000000 1.00000000 1.00000000
H 28.45915665 30.44357297 37.58510140 2971 153 0 1.00000000 1.00000000 1.00000000
H 28.82880632 29.19069368 36.46825781 2972 153 0 1.00000000 1.00000000 1.00000000
C 27.64109151 28.68208369 20.59180135 2973 154 0 0.56500000 0.56500000 0.56500000
C 27.32620509 29.85296223 19.66991884 2974 154 0 0.56500000 0.56500000 0.56500000
C 26.29361140 30.82482445 20.21451585 2975 154 0 0.56500000 0.56500000 0.56500000
C 26.13616171 32.02784066 19.32852171 2976 154 0 0.56500000 0.56500000 0.56500000
C 25.16839261 33.04494131 19.81131631 2977 154 0 0.56500000 0.56500000 0.56500000
C 25.14129473 34.30134546 18.91505951 2978 154 0 0.56500000 0.56500000 0.56500000
C 26.35148057 35.16819656 19.10215224 2979 154 0 0.56500000 0.56500000 0.56500000
H 28.32972701 27.93118137 20.25825047 2980 154 0 1.00000000 1.00000000 1.00000000
H 26.74474080 28.17236104 20.89022241 2981 154 0 1.00000000 1.00000000 1.00000000
H 28.17753293 29.06506164 21.46014916 2982 154 0 1.00000000 1.00000000 1.00000000
H 27.00759961 29.54862765 18.69235064 2983 154 0 1.00000000 1.00000000 1.00000000
H 28.29631310 30.46613243 19.54958662 2984 154 0 1.00000000 1.00000000 1.00000000
H 26.47081418 31.04458566 21.30377969 2985 154 0 1.00000000 1.00000000 1.00000000
H 25.31160055 30.30900396 20.27321257 2986 154 0 1.00000000 1.00000000 1.00000000
H 25.74785829 31.59955739 18.31649632 2987 154 0 1.00000000 1.00000000 1.00000000
H 27.09139209 32.60418337 19.14531934 2988 154 0 1.00000000 1.00000000 1.00000000
H 25.53547775 33.34953366 20.75276206 2989 154 0 1.00000000 1.00000000 1.00000000
H 24.17628235 32.65211398 20.03878831 2990 154 0 1.00000000 1.00000000 1.00000000
H 24.26245997 34.91083102 19.03033519 2991 154 0 1.00000000 1.00000000 1.00000000
H 24.99805184 33.86824416 17.90088826 2992 154 0 1.00000000 1.00000000 1.00000000
H 26.30923602 36.18325730 18.70081753 2993 154 0 1.00000000 1.00000000 1.00000000
H 27.22845117 34.68413215 18.63666960 2994 154 0 1.00000000 1.00000000 1.00000000
H 26.55533555 35.36609023 20.21836820 2995 154 0 1.00000000 1.00000000 1.00000000
C 29.79642769 16.22683769 2.78630527 2996 155 0 0.56500000 0.56500000 0.56500000
C 30.70624419 15.28561119 1.98216035 2997 155 0 0.56500000 0.56500000 0.56500000
C 30.04785147 13.98539112 1.46939447 2998 155 0 0.56500000 0.56500000 0.56500000
C 29.71423450 13.04159591 2.65957618 2999 155 0 0.56500000 0.56500000 0.56500000
C 29.26908440 11.62732898 2.20220690 3000 155 0 0.56500000 0.56500000 0.56500000
C 28.80295059 10.74620355 3.39789054 3001 155 0 0.56500000 0.56500000 0.56500000
C 28.41828279 9.39235960 2.90074541 3002 155 0 0.56500000 0.56500000 0.56500000
H 28.93212996 16.44332757 2.16918771 3003 155 0 1.00000000 1.00000000 1.00000000
H 30.19842235 17.19750390 2.95218103 3004 155 0 1.00000000 1.00000000 1.00000000
H 29.50059886 15.74835079 3.71059943 3005 155 0 1.00000000 1.00000000 1.00000000
H 31.55790210 15.06673396 2.57059221 3006 155 0 1.00000000 1.00000000 1.00000000
H 31.05186891 15.84176832 1.12032407 3007 155 0 1.00000000 1.00000000 1.00000000
H 30.62531357 13.50689179 0.68293019 3008 155 0 1.00000000 1.00000000 1.00000000
H 29.07051667 14.37057665 1.12540380 3009 155 0 1.00000000 1.00000000 1.00000000
H 28.96988553 13.50946165 3.32150548 3010 155 0 1.00000000 1.00000000 1.00000000
H 30.67085888 12.95032398 3.22013757 3011 155 0 1.00000000 1.00000000 1.00000000
H 29.97124720 11.14220705 1.57777794 3012 155 0 1.00000000 1.00000000 1.00000000
H 28.38595053 11.62597975 1.52531399 3013 155 0 1.00000000 1.00000000 1.00000000
H 27.94182637 11.21104870 3.96519792 3014 155 0 1.00000000 1.00000000 1.00000000
H 29.62808868 10.79828610 4.14386980 3015 155 0 1.00000000 1.00000000 1.00000000
H 27.92677794 8.76297749 3.70123443 3016 155 0 1.00000000 1.00000000 1.00000000
H 29.18428940 8.74951575 2.52364625 3017 155 0 1.00000000 1.00000000 1.00000000
H 27.64964493 9.49793776 2.03901815 3018 155 0 1.00000000 1.00000000 1.00000000
C 43.75573971 13.69469041 17.07677130 3019 156 0 0.56500000 0.56500000 0.56500000
C 44.34192994 14.42130775 18.30104922 3020 156 0 0.56500000 0.56500000 0.56500000
C 45.06940727 15.70076307 17.96912535 3021 156 0 0.56500000 0.56500000 0.56500000
C 45.73834063 16.39560983 19.16491500 3022 156 0 0.56500000 0.56500000 0.56500000
C 46.83828031 15.59102419 19.77318541 3023 156 0 0.56500000 0.56500000 0.56500000
C 47.65098431 16.37677326 20.76723682 3024 156 0 0.56500000 0.56500000 0.56500000
C 48.72785576 15.56846268 21.45900870 3025 156 0 0.56500000 0.56500000 0.56500000
H 42.99480275 14.33957671 16.58343986 3026 156 0 1.00000000 1.00000000 1.00000000
H 43.32610724 12.75674473 17.38684461 3027 156 0 1.00000000 1.00000000 1.00000000
H 44.49138230 13.47717338 16.28925747 3028 156 0 1.00000000 1.00000000 1.00000000
H 44.99700041 13.78125803 18.86302065 3029 156 0 1.00000000 1.00000000 1.00000000
H 43.50511113 14.66454954 18.99062546 3030 156 0 1.00000000 1.00000000 1.00000000
H 44.37552360 16.36046995 17.43762789 3031 156 0 1.00000000 1.00000000 1.00000000
H 45.79226315 15.56261493 17.20087327 3032 156 0 1.00000000 1.00000000 1.00000000
H 44.94773628 16.56658287 19.93391060 3033 156 0 1.00000000 1.00000000 1.00000000
H 46.08534803 17.39825451 18.89956201 3034 156 0 1.00000000 1.00000000 1.00000000
H 47.37237190 14.98118002 19.03232777 3035 156 0 1.00000000 1.00000000 1.00000000
H 46.42419895 14.75262370 20.30297972 3036 156 0 1.00000000 1.00000000 1.00000000
H 46.90939538 16.81445712 21.42282241 3037 156 0 1.00000000 1.00000000 1.00000000
H 48.13414348 17.27705580 20.39293465 3038 156 0 1.00000000 1.00000000 1.00000000
H 48.37058747 14.60902768 21.85553647 3039 156 0 1.00000000 1.00000000 1.00000000
H 49.08772349 16.12646015 22.30435626 3040 156 0 1.00000000 1.00000000 1.00000000
H 49.61825672 15.35146175 20.89302903 3041 156 0 1.00000000 1.00000000 1.00000000
C 6.10613813 13.16569323 42.46967990 3042 157 0 0.56500000 0.56500000 0.56500000
C 7.44338321 13.85695298 42.11753073 3043 157 0 0.56500000 0.56500000 0.56500000
C 8.16381323 14.50427244 43.34160337 3044 157 0 0.56500000 0.56500000 0.56500000
C 9.13682825 15.60008187 43.04397032 3045 157 0 0.56500000 0.56500000 0.56500000
C 9.62411044 16.31321464 44.32184820 3046 157 0 0.56500000 0.56500000 0.56500000
C 8.48837741 17.14369494 44.95781598 3047 157 0 0.56500000 0.56500000 0.56500000
C 9.08986173 18.21328884 45.91035088 3048 157 0 0.56500000 0.56500000 0.56500000
H 6.36925641 12.40642511 43.20326421 3049 157 0 1.00000000 1.00000000 1.00000000
H 5.72263225 12.65895827 41.58690057 3050 157 0 1.00000000 1.00000000 1.00000000
H 5.36786168 13.86099476 42.85481561 3051 157 0 1.00000000 1.00000000 1.00000000
H 7.23570071 14.60623950 41.40799209 3052 157 0 1.00000000 1.00000000 1.00000000
H 8.20675075 13.12925724 41.78733259 3053 157 0 1.00000000 1.00000000 1.00000000
H 8.66052132 13.75838399 43.94965530 3054 157 0 1.00000000 1.00000000 1.00000000
H 7.38440232 14.92494153 44.03859600 3055 157 0 1.00000000 1.00000000 1.00000000
H 8.78409309 16.27151495 42.27787367 3056 157 0 1.00000000 1.00000000 1.00000000
H 10.01990402 15.02666574 42.52523573 3057 157 0 1.00000000 1.00000000 1.00000000
H 10.47684976 16.91929262 44.01176474 3058 157 0 1.00000000 1.00000000 1.00000000
H 9.84885523 15.57371672 44.99727243 3059 157 0 1.00000000 1.00000000 1.00000000
H 7.74273058 16.53043411 45.42220745 3060 157 0 1.00000000 1.00000000 1.00000000
H 7.93992028 17.57621094 44.09071246 3061 157 0 1.00000000 1.00000000 1.00000000
H 9.66192664 17.74023188 46.68885637 3062 157 0 1.00000000 1.00000000 1.00000000
H 8.28986268 18.85923387 46.24847198 3063 157 0 1.00000000 1.00000000 1.00000000
H 9.79674081 18.78973292 45.30989829 3064 157 0 1.00000000 1.00000000 1.00000000
C 10.44321559 26.10032427 12.53946147 3065 158 0 0.56500000 0.56500000 0.56500000
C 10.88805864 24.95099106 13.41973537 3066 158 0 0.56500000 0.56500000 0.56500000
C 12.27959934 24.39791689 13.16401893 3067 158 0 0.56500000 0.56500000 0.56500000
C 12.40779447 24.03523773 11.69924236 3068 158 0 0.56500000 0.56500000 0.56500000
C 13.58230794 23.11895869 11.45519351 3069 158 0 0.56500000 0.56500000 0.56500000
C 14.84611990 23.72596647 11.95954195 3070 158 0 0.56500000 0.56500000 0.56500000
C 15.98873021 22.83149664 11.70078133 3071 158 0 0.56500000 0.56500000 0.56500000
H 10.67119597 25.91964410 11.48045070 3072 158 0 1.00000000 1.00000000 1.00000000
H 10.83074657 27.07215655 12.87315383 3073 158 0 1.00000000 1.00000000 1.00000000
H 9.32504812 26.21229885 12.67996899 3074 158 0 1.00000000 1.00000000 1.00000000
H 10.21830994 24.12970444 13.23007450 3075 158 0 1.00000000 1.00000000 1.00000000
H 10.62175721 25.15274058 14.44381095 3076 158 0 1.00000000 1.00000000 1.00000000
H 12.44157277 23.62519966 13.96440935 3077 158 0 1.00000000 1.00000000 1.00000000
H 12.99647826 25.18138142 13.40402949 3078 158 0 1.00000000 1.00000000 1.00000000
H 12.62217804 24.96661073 11.12506750 3079 158 0 1.00000000 1.00000000 1.00000000
H 11.50406975 23.61443987 11.28797200 3080 158 0 1.00000000 1.00000000 1.00000000
H 13.70457522 23.07466033 10.36307225 3081 158 0 1.00000000 1.00000000 1.00000000
H 13.50113873 22.13166398 11.92661418 3082 158 0 1.00000000 1.00000000 1.00000000
H 14.81134814 23.98717728 13.04270913 3083 158 0 1.00000000 1.00000000 1.00000000
H 14.92797582 24.74062067 11.47650431 3084 158 0 1.00000000 1.00000000 1.00000000
H 16.05587270 22.03043852 12.53604606 3085 158 0 1.00000000 1.00000000 1.00000000
H 16.94943280 23.35318912 11.67242245 3086 158 0 1.00000000 1.00000000 1.00000000
H 15.81227101 22.23069870 10.75296238 3087 158 0 1.00000000 1.00000000 1.00000000
C 47.63996789 19.15724976 11.91842305 3088 159 0 0.56500000 0.56500000 0.56500000
C 46.23022937 18.72728326 12.53433633 3089 159 0 0.56500000 0.56500000 0.56500000
C 46.27756615 18.43790554 14.02317206 3090 159 0 0.56500000 0.56500000 0.56500000
C 46.11177198 19.59613792 14.94774955 3091 159 0 0.56500000 0.56500000 0.56500000
C 45.70638974 19.20065507 16.35013759 3092 159 0 0.56500000 0.56500000 0.56500000
C 44.23796928 19.20296717 16.60224940 3093 159 0 0.56500000 0.56500000 0.56500000
C 43.84444750 19.38714201 17.99624886 3094 159 0 0.56500000 0.56500000 0.56500000
H 47.87993286 20.01199912 12.54381582 3095 159 0 1.00000000 1.00000000 1.00000000
H 47.70409837 19.40350819 10.88864024 3096 159 0 1.00000000 1.00000000 1.00000000
H 48.20217132 18.31996436 12.15713804 3097 159 0 1.00000000 1.00000000 1.00000000
H 45.82534576 17.88442693 11.96184050 3098 159 0 1.00000000 1.00000000 1.00000000
H 45.52745152 19.58728196 12.30985059 3099 159 0 1.00000000 1.00000000 1.00000000
H 47.19850757 17.86776795 14.18163365 3100 159 0 1.00000000 1.00000000 1.00000000
H 45.48854725 17.76349146 14.32062826 3101 159 0 1.00000000 1.00000000 1.00000000
H 45.50873562 20.30407226 14.45294224 3102 159 0 1.00000000 1.00000000 1.00000000
H 47.06007077 20.15976455 15.09774203 3103 159 0 1.00000000 1.00000000 1.00000000
H 46.23288430 19.92385169 16.96770424 3104 159 0 1.00000000 1.00000000 1.00000000
H 46.28676176 18.25951701 16.56643453 3105 159 0 1.00000000 1.00000000 1.00000000
H 43.87628701 18.21495072 16.35530281 3106 159 0 1.00000000 1.00000000 1.00000000
H 43.70004327 19.75671026 15.76654952 3107 159 0 1.00000000 1.00000000 1.00000000
H 44.41261535 18.73068910 18.63189179 3108 159 0 1.00000000 1.00000000 1.00000000
H 42.75733891 19.21705323 18.19117242 3109 159 0 1.00000000 1.00000000 1.00000000
H 44.07242278 20.34708848 18.46916644 3110 159 0 1.00000000 1.00000000 1.00000000
C 38.90856269 16.93035218 19.56455992 3111 160 0 0.56500000 0.56500000 0.56500000
C 39.86346822 15.87565205 20.01912218 3112 160 0 0.56500000 0.56500000 0.56500000
C 39.62290027 15.45753289 21.47990114 3113 160 0 0.56500000 0.56500000 0.56500000
C 40.35244428 14.15955309 21.95703115 3114 160 0 0.56500000 0.56500000 0.56500000
C 40.10511655 13.84745271 23.49609425 3115 160 0 0.56500000 0.56500000 0.56500000
C 41.09585033 12.71526416 24.00495284 3116 160 0 0.56500000 0.56500000 0.56500000
C 41.09239107 11.41981993 23.07942393 3117 160 0 0.56500000 0.56500000 0.56500000
H 39.01925618 17.13726260 18.48179721 3118 160 0 1.00000000 1.00000000 1.00000000
H 39.06338456 17.87394926 19.95887434 3119 160 0 1.00000000 1.00000000 1.00000000
H 37.90322564 16.64112753 19.74931998 3120 160 0 1.00000000 1.00000000 1.00000000
H 40.81339961 16.42125546 20.01253542 3121 160 0 1.00000000 1.00000000 1.00000000
H 40.08827230 15.12034423 19.21125577 3122 160 0 1.00000000 1.00000000 1.00000000
H 38.57981334 15.28389986 21.77316048 3123 160 0 1.00000000 1.00000000 1.00000000
H 40.09336261 16.22262337 22.03154634 3124 160 0 1.00000000 1.00000000 1.00000000
H 41.40488900 14.27311940 21.86331194 3125 160 0 1.00000000 1.00000000 1.00000000
H 39.91628902 13.36198913 21.37278710 3126 160 0 1.00000000 1.00000000 1.00000000
H 39.10530271 13.47308216 23.64808306 3127 160 0 1.00000000 1.00000000 1.00000000
H 40.35620643 14.75964403 24.10224751 3128 160 0 1.00000000 1.00000000 1.00000000
H 40.78875497 12.51331347 25.03392095 3129 160 0 1.00000000 1.00000000 1.00000000
H 42.07780208 13.15221871 24.02654662 3130 160 0 1.00000000 1.00000000 1.00000000
H 41.86512309 10.72764814 23.48264780 3131 160 0 1.00000000 1.00000000 1.00000000
H 41.18306568 11.71748821 22.08528130 3132 160 0 1.00000000 1.00000000 1.00000000
H 40.09049354 11.00164797 23.17744757 3133 160 0 1.00000000 1.00000000 1.00000000
C -0.50982695 29.63556614 4.16682185 3134 161 0 0.56500000 0.56500000 0.56500000
C -0.61852586 28.17688788 3.62028350 3135 161 0 0.56500000 0.56500000 0.56500000
C 0.69895852 27.44292112 3.54406891 3136 161 0 0.56500000 0.56500000 0.56500000
C 0.54113770 26.06362056 2.93251907 3137 161 0 0.56500000 0.56500000 0.56500000
C 0.06259904 24.90021163 3.73334371 3138 161 0 0.56500000 0.56500000 0.56500000
C 0.79413591 24.67455737 5.14768684 3139 161 0 0.56500000 0.56500000 0.56500000
C 0.24833786 23.48170395 5.80547516 3140 161 0 0.56500000 0.56500000 0.56500000
H -1.40147342 30.24910424 3.84008085 3141 161 0 1.00000000 1.00000000 1.00000000
H 0.37656398 30.20278491 3.80004841 3142 161 0 1.00000000 1.00000000 1.00000000
H -0.46440395 29.61497704 5.19999135 3143 161 0 1.00000000 1.00000000 1.00000000
H -1.12176576 28.04972751 2.64880825 3144 161 0 1.00000000 1.00000000 1.00000000
H -1.26721365 27.57232929 4.27933968 3145 161 0 1.00000000 1.00000000 1.00000000
H 1.06163480 27.32942066 4.60523305 3146 161 0 1.00000000 1.00000000 1.00000000
H 1.38276068 27.92548520 2.82359080 3147 161 0 1.00000000 1.00000000 1.00000000
H 1.53575697 25.68353087 2.59345343 3148 161 0 1.00000000 1.00000000 1.00000000
H -0.22279064 26.23154606 2.10427806 3149 161 0 1.00000000 1.00000000 1.00000000
H 0.40736602 24.09672613 3.05462972 3150 161 0 1.00000000 1.00000000 1.00000000
H -1.02874975 24.86982153 3.81625866 3151 161 0 1.00000000 1.00000000 1.00000000
H 0.64576137 25.55458051 5.76972199 3152 161 0 1.00000000 1.00000000 1.00000000
H 1.89449183 24.61069197 5.02418526 3153 161 0 1.00000000 1.00000000 1.00000000
H 0.76087866 23.31852498 6.70344201 3154 161 0 1.00000000 1.00000000 1.00000000
H 0.38370726 22.59035528 5.18561290 3155 161 0 1.00000000 1.00000000 1.00000000
H -0.78057072 23.75258677 5.98466100 3156 161 0 1.00000000 1.00000000 1.00000000
C 25.49459136 19.44127975 -4.00965064 3157 162 0 0.56500000 0.56500000 0.56500000
C 26.44935479 18.41590791 -4.67656171 3158 162 0 0.56500000 0.56500000 0.56500000
C 25.61656617 17.35461846 -5.34248613 3159 162 0 0.56500000 0.56500000 0.56500000
C 26.34797030 16.55968899 -6.45117488 3160 162 0 0.56500000 0.56500000 0.56500000
C 27.76251063 16.02131878 -6.13725680 3161 162 0 0.56500000 0.56500000 0.56500000
C 28.44311466 15.27900048 -7.29150557 3162 162 0 0.56500000 0.56500000 0.56500000
C 29.98537619 15.27753988 -7.17260995 3163 162 0 0.56500000 0.56500000 0.56500000
H 26.04483582 20.16887369 -3.45432393 3164 162 0 1.00000000 1.00000000 1.00000000
H 24.81422496 18.88376540 -3.36026239 3165 162 0 1.00000000 1.00000000 1.00000000
H 24.87272893 20.02629849 -4.69087920 3166 162 0 1.00000000 1.00000000 1.00000000
H 27.17936751 18.00695987 -3.94985160 3167 162 0 1.00000000 1.00000000 1.00000000
H 27.07229312 18.88382651 -5.48403827 3168 162 0 1.00000000 1.00000000 1.00000000
H 24.64086001 17.72548416 -5.84094445 3169 162 0 1.00000000 1.00000000 1.00000000
H 25.26587499 16.73754667 -4.49588636 3170 162 0 1.00000000 1.00000000 1.00000000
H 26.53007963 17.31502928 -7.32973006 3171 162 0 1.00000000 1.00000000 1.00000000
H 25.72942693 15.72027288 -6.80861792 3172 162 0 1.00000000 1.00000000 1.00000000
H 27.70035485 15.42436000 -5.25509516 3173 162 0 1.00000000 1.00000000 1.00000000
H 28.41827099 16.82427311 -5.90037701 3174 162 0 1.00000000 1.00000000 1.00000000
H 28.25578270 15.79990774 -8.29653664 3175 162 0 1.00000000 1.00000000 1.00000000
H 28.01530307 14.26804151 -7.40584393 3176 162 0 1.00000000 1.00000000 1.00000000
H 30.39125854 16.30950531 -7.28406759 3177 162 0 1.00000000 1.00000000 1.00000000
H 30.31818498 14.50438157 -7.90250406 3178 162 0 1.00000000 1.00000000 1.00000000
H 30.31631390 14.83723515 -6.20404851 3179 162 0 1.00000000 1.00000000 1.00000000
C 31.91747101 47.90925067 34.96028131 3180 163 0 0.56500000 0.56500000 0.56500000
C 33.06249538 48.82193478 35.54710269 3181 163 0 0.56500000 0.56500000 0.56500000
C 32.89341055 49.07582314 37.10642147 3182 163 0 0.56500000 0.56500000 0.56500000
C 33.15927632 50.55564111 37.47641102 3183 163 0 0.56500000 0.56500000 0.56500000
C 33.16736726 50.79703080 38.98820013 3184 163 0 0.56500000 0.56500000 0.56500000
C 33.82171854 52.07715718 39.51461390 3185 163 0 0.56500000 0.56500000 0.56500000
C 33.97541611 52.10301264 41.00050243 3186 163 0 0.56500000 0.56500000 0.56500000
H 31.88963065 46.89821601 35.33264591 3187 163 0 1.00000000 1.00000000 1.00000000
H 31.99573987 47.94394591 33.86822143 3188 163 0 1.00000000 1.00000000 1.00000000
H 30.99662239 48.34882442 35.31075728 3189 163 0 1.00000000 1.00000000 1.00000000
H 33.12647509 49.70414822 34.94358133 3190 163 0 1.00000000 1.00000000 1.00000000
H 34.02658971 48.30771109 35.44346624 3191 163 0 1.00000000 1.00000000 1.00000000
H 33.49182094 48.34335391 37.67576466 3192 163 0 1.00000000 1.00000000 1.00000000
H 31.83678555 48.85106865 37.31410168 3193 163 0 1.00000000 1.00000000 1.00000000
H 32.35082819 51.07381489 36.98989209 3194 163 0 1.00000000 1.00000000 1.00000000
H 34.11372469 50.93643207 37.01938554 3195 163 0 1.00000000 1.00000000 1.00000000
H 33.63233156 49.93536098 39.46684544 3196 163 0 1.00000000 1.00000000 1.00000000
H 32.17245522 50.76349593 39.44903210 3197 163 0 1.00000000 1.00000000 1.00000000
H 33.23670171 52.89662302 39.16225926 3198 163 0 1.00000000 1.00000000 1.00000000
H 34.77634339 52.18285207 38.93754240 3199 163 0 1.00000000 1.00000000 1.00000000
H 34.45205601 51.19510631 41.41395850 3200 163 0 1.00000000 1.00000000 1.00000000
H 33.01137360 52.07386944 41.53035494 3201 163 0 1.00000000 1.00000000 1.00000000
H 34.65115068 52.81161587 41.49728474 3202 163 0 1.00000000 1.00000000 1.00000000
C 0.66068999 18.24209200 5.21447520 3203 164 0 0.56500000 0.56500000 0.56500000
C 1.55902932 17.19607230 5.91651590 3204 164 0 0.56500000 0.56500000 0.56500000
C 1.42283094 15.78344900 5.25002805 3205 164 0 0.56500000 0.56500000 0.56500000
C 1.84635949 15.75192080 3.80506870 3206 164 0 0.56500000 0.56500000 0.56500000
C 1.62669025 14.37579604 3.18149107 3207 164 0 0.56500000 0.56500000 0.56500000
C 1.80561670 14.28395422 1.69381276 3208 164 0 0.56500000 0.56500000 0.56500000
C 1.18377587 13.02708395 1.05428840 3209 164 0 0.56500000 0.56500000 0.56500000
H 0.72624912 19.18100118 5.74814084 3210 164 0 1.00000000 1.00000000 1.00000000
H -0.33567452 17.83903507 5.17104966 3211 164 0 1.00000000 1.00000000 1.00000000
H 0.94816571 18.38747287 4.20483615 3212 164 0 1.00000000 1.00000000 1.00000000
H 1.23816184 17.07368983 6.96513793 3213 164 0 1.00000000 1.00000000 1.00000000
H 2.56940694 17.43866636 5.81818381 3214 164 0 1.00000000 1.00000000 1.00000000
H 0.42466582 15.55672515 5.38457604 3215 164 0 1.00000000 1.00000000 1.00000000
H 2.01948336 15.18586691 5.93781177 3216 164 0 1.00000000 1.00000000 1.00000000
H 2.92331768 16.03670788 3.61345280 3217 164 0 1.00000000 1.00000000 1.00000000
H 1.35140509 16.50082101 3.23271648 3218 164 0 1.00000000 1.00000000 1.00000000
H 0.57089432 14.20010298 3.35222514 3219 164 0 1.00000000 1.00000000 1.00000000
H 2.12572371 13.55325412 3.78315314 3220 164 0 1.00000000 1.00000000 1.00000000
H 2.85808503 14.39335350 1.43432231 3221 164 0 1.00000000 1.00000000 1.00000000
H 1.34442861 15.21960403 1.38558779 3222 164 0 1.00000000 1.00000000 1.00000000
H 0.10528111 13.04529905 1.25464160 3223 164 0 1.00000000 1.00000000 1.00000000
H 1.52798225 12.12334403 1.52835205 3224 164 0 1.00000000 1.00000000 1.00000000
H 1.29945099 12.89211266 0.01026911 3225 164 0 1.00000000 1.00000000 1.00000000
C 42.99164782 36.17015724 1.53971736 3226 165 0 0.56500000 0.56500000 0.56500000
C 42.53625571 34.75950743 1.39976072 3227 165 0 0.56500000 0.56500000 0.56500000
C 41.12186580 34.48587576 0.85994088 3228 165 0 0.56500000 0.56500000 0.56500000
C 40.79612749 32.97485081 0.92044700 3229 165 0 0.56500000 0.56500000 0.56500000
C 40.58813594 32.24364481 -0.38428717 3230 165 0 0.56500000 0.56500000 0.56500000
C 40.47320375 30.68185413 -0.26594720 3231 165 0 0.56500000 0.56500000 0.56500000
C 39.18876798 30.20194110 0.37762768 3232 165 0 0.56500000 0.56500000 0.56500000
H 44.11246807 36.33527584 1.79585655 3233 165 0 1.00000000 1.00000000 1.00000000
H 42.50408279 36.63858474 2.37900662 3234 165 0 1.00000000 1.00000000 1.00000000
H 42.84599962 36.81337627 0.63390211 3235 165 0 1.00000000 1.00000000 1.00000000
H 42.52432128 34.28289166 2.38140114 3236 165 0 1.00000000 1.00000000 1.00000000
H 43.34481162 34.18627442 0.85569839 3237 165 0 1.00000000 1.00000000 1.00000000
H 41.05046939 34.99162887 -0.11215644 3238 165 0 1.00000000 1.00000000 1.00000000
H 40.51483238 35.09239657 1.55355441 3239 165 0 1.00000000 1.00000000 1.00000000
H 39.92631497 32.92067205 1.60002010 3240 165 0 1.00000000 1.00000000 1.00000000
H 41.77774535 32.56005076 1.37618944 3241 165 0 1.00000000 1.00000000 1.00000000
H 41.44765548 32.54662870 -0.97833290 3242 165 0 1.00000000 1.00000000 1.00000000
H 39.66871179 32.52619075 -1.00173091 3243 165 0 1.00000000 1.00000000 1.00000000
H 41.36533580 30.42151459 0.24389248 3244 165 0 1.00000000 1.00000000 1.00000000
H 40.58530973 30.20060325 -1.24168745 3245 165 0 1.00000000 1.00000000 1.00000000
H 38.36321223 30.74634618 -0.05130110 3246 165 0 1.00000000 1.00000000 1.00000000
H 39.02334300 30.41611757 1.41936636 3247 165 0 1.00000000 1.00000000 1.00000000
H 39.10207864 29.09827936 0.10768403 3248 165 0 1.00000000 1.00000000 1.00000000
C 14.11006933 3.85720078 37.01112602 3249 166 0 0.56500000 0.56500000 0.56500000
C 13.52040050 4.55257592 38.23697159 3250 166 0 0.56500000 0.56500000 0.56500000
C 14.03901971 5.96093896 38.46354577 3251 166 0 0.56500000 0.56500000 0.56500000
C 13.51136449 6.62570659 39.79821557 3252 166 0 0.56500000 0.56500000 0.56500000
C 14.44223780 7.78636455 40.14759684 3253 166 0 0.56500000 0.56500000 0.56500000
C 13.90554902 8.64943917 41.25102444 3254 166 0 0.56500000 0.56500000 0.56500000
C 14.80765929 9.80881839 41.62693823 3255 166 0 0.56500000 0.56500000 0.56500000
H 13.79617722 4.36577739 36.12395636 3256 166 0 1.00000000 1.00000000 1.00000000
H 13.65166524 2.80345120 36.98181427 3257 166 0 1.00000000 1.00000000 1.00000000
H 15.12568368 3.77149164 36.92433879 3258 166 0 1.00000000 1.00000000 1.00000000
H 13.72114574 3.94917585 39.16729474 3259 166 0 1.00000000 1.00000000 1.00000000
H 12.45868208 4.52310264 38.12736070 3260 166 0 1.00000000 1.00000000 1.00000000
H 13.77458964 6.66504381 37.64531245 3261 166 0 1.00000000 1.00000000 1.00000000
H 15.11198216 5.95463077 38.56172036 3262 166 0 1.00000000 1.00000000 1.00000000
H 13.53963878 5.82573696 40.55620028 3263 166 0 1.00000000 1.00000000 1.00000000
H 12.48489835 7.00601440 39.69034404 3264 166 0 1.00000000 1.00000000 1.00000000
H 14.65475334 8.39375162 39.23996295 3265 166 0 1.00000000 1.00000000 1.00000000
H 15.49185517 7.39711452 40.31387318 3266 166 0 1.00000000 1.00000000 1.00000000
H 13.62104150 7.87366456 41.98798823 3267 166 0 1.00000000 1.00000000 1.00000000
H 12.95240094 9.00820037 40.86476884 3268 166 0 1.00000000 1.00000000 1.00000000
H 15.24648336 10.36214906 40.76378566 3269 166 0 1.00000000 1.00000000 1.00000000
H 15.62824964 9.45707949 42.30561336 3270 166 0 1.00000000 1.00000000 1.00000000
H 14.31763921 10.56304419 42.27008721 3271 166 0 1.00000000 1.00000000 1.00000000
C 38.75238320 29.45235521 6.49978097 3272 167 0 0.56500000 0.56500000 0.56500000
C 38.53579252 29.36008282 4.93867644 3273 167 0 0.56500000 0.56500000 0.56500000
C 38.04548253 27.95552616 4.61416904 3274 167 0 0.56500000 0.56500000 0.56500000
C 37.73575894 27.69460539 3.17974645 3275 167 0 0.56500000 0.56500000 0.56500000
C 37.57625418 26.23539712 2.82198350 3276 167 0 0.56500000 0.56500000 0.56500000
C 37.63434109 25.97579745 1.31115018 3277 167 0 0.56500000 0.56500000 0.56500000
C 39.11415258 25.93382470 0.83390890 3278 167 0 0.56500000 0.56500000 0.56500000
H 38.95586053 30.50721685 6.73855461 3279 167 0 1.00000000 1.00000000 1.00000000
H 39.57079766 28.81556911 6.87203790 3280 167 0 1.00000000 1.00000000 1.00000000
H 37.89455154 29.13954157 7.03697047 3281 167 0 1.00000000 1.00000000 1.00000000
H 39.50989040 29.51124402 4.49607221 3282 167 0 1.00000000 1.00000000 1.00000000
H 37.98376525 30.21910257 4.57006923 3283 167 0 1.00000000 1.00000000 1.00000000
H 37.19883725 27.72978616 5.27351286 3284 167 0 1.00000000 1.00000000 1.00000000
H 38.85900835 27.26142394 4.95117650 3285 167 0 1.00000000 1.00000000 1.00000000
H 38.56277521 28.11235091 2.64399578 3286 167 0 1.00000000 1.00000000 1.00000000
H 36.85162880 28.26777112 2.90412621 3287 167 0 1.00000000 1.00000000 1.00000000
H 36.62814199 25.93732257 3.22975987 3288 167 0 1.00000000 1.00000000 1.00000000
H 38.26603154 25.68085208 3.35001765 3289 167 0 1.00000000 1.00000000 1.00000000
H 37.12076676 26.81439437 0.69716806 3290 167 0 1.00000000 1.00000000 1.00000000
H 36.95534133 25.15517583 1.10888118 3291 167 0 1.00000000 1.00000000 1.00000000
H 39.28080653 25.53599032 -0.12786717 3292 167 0 1.00000000 1.00000000 1.00000000
H 39.57907009 25.29237218 1.55754462 3293 167 0 1.00000000 1.00000000 1.00000000
H 39.49084975 27.01192310 0.85038203 3294 167 0 1.00000000 1.00000000 1.00000000
C 26.03004806 48.33551455 11.13787691 3295 168 0 0.56500000 0.56500000 0.56500000
C 27.06273115 48.78924301 10.06943293 3296 168 0 0.56500000 0.56500000 0.56500000
C 28.14845849 47.88346557 9.59728336 3297 168 0 0.56500000 0.56500000 0.56500000
C 28.90922998 48.63124531 8.43419332 3298 168 0 0.56500000 0.56500000 0.56500000
C 30.24692587 47.91766849 8.13018452 3299 168 0 0.56500000 0.56500000 0.56500000
C 30.90460253 48.44585333 6.94039168 3300 168 0 0.56500000 0.56500000 0.56500000
C 31.24545268 49.89894907 7.14151374 3301 168 0 0.56500000 0.56500000 0.56500000
H 25.16493780 49.02503811 11.05969828 3302 168 0 1.00000000 1.00000000 1.00000000
H 26.49326304 48.29824155 12.08934644 3303 168 0 1.00000000 1.00000000 1.00000000
H 25.60453348 47.29280052 10.92164556 3304 168 0 1.00000000 1.00000000 1.00000000
H 27.55095951 49.64909822 10.47624639 3305 168 0 1.00000000 1.00000000 1.00000000
H 26.48086465 48.98035351 9.09664110 3306 168 0 1.00000000 1.00000000 1.00000000
H 27.84155041 46.93761146 9.12811831 3307 168 0 1.00000000 1.00000000 1.00000000
H 28.82661152 47.64282416 10.42903983 3308 168 0 1.00000000 1.00000000 1.00000000
H 29.14365225 49.61094385 8.97323453 3309 168 0 1.00000000 1.00000000 1.00000000
H 28.32572060 48.81433496 7.51664768 3310 168 0 1.00000000 1.00000000 1.00000000
H 29.90623524 46.86288323 7.98895984 3311 168 0 1.00000000 1.00000000 1.00000000
H 30.82670724 48.05155489 9.08422751 3312 168 0 1.00000000 1.00000000 1.00000000
H 30.15347372 48.33120387 6.11761440 3313 168 0 1.00000000 1.00000000 1.00000000
H 31.81797404 47.97993667 6.72045897 3314 168 0 1.00000000 1.00000000 1.00000000
H 31.70097948 50.26569242 6.18152821 3315 168 0 1.00000000 1.00000000 1.00000000
H 31.90142537 49.97479941 8.00145803 3316 168 0 1.00000000 1.00000000 1.00000000
H 30.42486483 50.63295279 7.25913967 3317 168 0 1.00000000 1.00000000 1.00000000
C 41.53349975 19.00342360 7.51163369 3318 169 0 0.56500000 0.56500000 0.56500000
C 41.73885911 18.64694420 8.97904726 3319 169 0 0.56500000 0.56500000 0.56500000
C 42.55270360 17.35921410 9.06343254 3320 169 0 0.56500000 0.56500000 0.56500000
C 42.56647129 16.83760148 10.52667380 3321 169 0 0.56500000 0.56500000 0.56500000
C 43.34224644 15.45871468 10.47419710 3322 169 0 0.56500000 0.56500000 0.56500000
C 42.95027040 14.56687276 11.69784808 3323 169 0 0.56500000 0.56500000 0.56500000
C 43.36289955 15.17134122 13.02407088 3324 169 0 0.56500000 0.56500000 0.56500000
H 42.48674387 19.08219159 6.97192379 3325 169 0 1.00000000 1.00000000 1.00000000
H 40.80638086 19.72000209 7.28363759 3326 169 0 1.00000000 1.00000000 1.00000000
H 41.07059736 18.10827373 7.15488260 3327 169 0 1.00000000 1.00000000 1.00000000
H 40.77658651 18.49575802 9.54313992 3328 169 0 1.00000000 1.00000000 1.00000000
H 42.34558198 19.39163822 9.54577527 3329 169 0 1.00000000 1.00000000 1.00000000
H 43.62001615 17.48501172 8.63132758 3330 169 0 1.00000000 1.00000000 1.00000000
H 42.23050357 16.63486751 8.37726575 3331 169 0 1.00000000 1.00000000 1.00000000
H 41.57776779 16.62958789 11.02426499 3332 169 0 1.00000000 1.00000000 1.00000000
H 42.99289698 17.47975582 11.30682573 3333 169 0 1.00000000 1.00000000 1.00000000
H 44.41268873 15.44582886 10.25431386 3334 169 0 1.00000000 1.00000000 1.00000000
H 42.99546520 14.84404810 9.59249434 3335 169 0 1.00000000 1.00000000 1.00000000
H 43.41870467 13.57176296 11.51916623 3336 169 0 1.00000000 1.00000000 1.00000000
H 41.87240889 14.39883548 11.70487863 3337 169 0 1.00000000 1.00000000 1.00000000
H 44.41495842 15.29216097 13.14293318 3338 169 0 1.00000000 1.00000000 1.00000000
H 43.06901320 14.48142489 13.90003709 3339 169 0 1.00000000 1.00000000 1.00000000
H 42.77544375 16.03984788 13.27486086 3340 169 0 1.00000000 1.00000000 1.00000000
C 40.49902247 17.09900487 34.81076505 3341 170 0 0.56500000 0.56500000 0.56500000
C 39.60213111 17.29356367 33.57439358 3342 170 0 0.56500000 0.56500000 0.56500000
C 39.39632026 16.01028124 32.78239809 3343 170 0 0.56500000 0.56500000 0.56500000
C 40.65564905 15.45509414 32.04586695 3344 170 0 0.56500000 0.56500000 0.56500000
C 40.34511859 14.39308737 30.97758143 3345 170 0 0.56500000 0.56500000 0.56500000
C 41.58982115 13.70251190 30.44550182 3346 170 0 0.56500000 0.56500000 0.56500000
C 41.30686100 12.54757722 29.42772907 3347 170 0 0.56500000 0.56500000 0.56500000
H 39.95792883 16.43327726 35.54608281 3348 170 0 1.00000000 1.00000000 1.00000000
H 40.70215681 18.04608684 35.38989647 3349 170 0 1.00000000 1.00000000 1.00000000
H 41.44964041 16.72332769 34.57385417 3350 170 0 1.00000000 1.00000000 1.00000000
H 40.07478318 18.01350448 32.98252014 3351 170 0 1.00000000 1.00000000 1.00000000
H 38.61865927 17.69505226 33.99973887 3352 170 0 1.00000000 1.00000000 1.00000000
H 38.66824553 16.24564196 32.00167677 3353 170 0 1.00000000 1.00000000 1.00000000
H 39.02763313 15.16372723 33.42483637 3354 170 0 1.00000000 1.00000000 1.00000000
H 41.39044354 15.10239947 32.80908499 3355 170 0 1.00000000 1.00000000 1.00000000
H 41.14071840 16.43240925 31.68310214 3356 170 0 1.00000000 1.00000000 1.00000000
H 39.67056193 14.80431806 30.21697219 3357 170 0 1.00000000 1.00000000 1.00000000
H 39.57662774 13.73883689 31.39689514 3358 170 0 1.00000000 1.00000000 1.00000000
H 42.22343853 13.32798709 31.27542440 3359 170 0 1.00000000 1.00000000 1.00000000
H 42.20259002 14.46462290 29.92068345 3360 170 0 1.00000000 1.00000000 1.00000000
H 41.00831485 12.89514035 28.42819743 3361 170 0 1.00000000 1.00000000 1.00000000
H 40.56404801 11.84462919 29.79442133 3362 170 0 1.00000000 1.00000000 1.00000000
H 42.22877373 12.04027044 29.16000609 3363 170 0 1.00000000 1.00000000 1.00000000
C 24.18840329 44.23334082 38.36535509 3364 171 0 0.56500000 0.56500000 0.56500000
C 24.44070530 43.89637888 36.85539522 3365 171 0 0.56500000 0.56500000 0.56500000
C 23.11342144 43.59021103 36.06293637 3366 171 0 0.56500000 0.56500000 0.56500000
C 22.27637049 42.49231767 36.74775794 3367 171 0 0.56500000 0.56500000 0.56500000
C 20.99868849 42.19957917 36.05960168 3368 171 0 0.56500000 0.56500000 0.56500000
C 20.98430980 41.90407395 34.54962035 3369 171 0 0.56500000 0.56500000 0.56500000
C 19.64902184 41.29547062 34.17233809 3370 171 0 0.56500000 0.56500000 0.56500000
H 24.14505049 43.34499393 38.99947061 3371 171 0 1.00000000 1.00000000 1.00000000
H 23.28581422 44.87272524 38.46811003 3372 171 0 1.00000000 1.00000000 1.00000000
H 25.04253722 44.84034295 38.77267446 3373 171 0 1.00000000 1.00000000 1.00000000
H 25.09399642 43.06908821 36.68183851 3374 171 0 1.00000000 1.00000000 1.00000000
H 24.97203152 44.67605579 36.24160512 3375 171 0 1.00000000 1.00000000 1.00000000
H 23.37140811 43.24510722 35.04138230 3376 171 0 1.00000000 1.00000000 1.00000000
H 22.52784528 44.54790238 36.10390596 3377 171 0 1.00000000 1.00000000 1.00000000
H 22.02533383 42.81296941 37.75524031 3378 171 0 1.00000000 1.00000000 1.00000000
H 22.89095957 41.60498147 36.88640650 3379 171 0 1.00000000 1.00000000 1.00000000
H 20.37541318 43.10647124 36.24761281 3380 171 0 1.00000000 1.00000000 1.00000000
H 20.57950242 41.34779665 36.69798538 3381 171 0 1.00000000 1.00000000 1.00000000
H 21.81070349 41.30622081 34.16324925 3382 171 0 1.00000000 1.00000000 1.00000000
H 21.08343194 42.80871450 33.95029890 3383 171 0 1.00000000 1.00000000 1.00000000
H 19.51068398 40.38269631 34.74988754 3384 171 0 1.00000000 1.00000000 1.00000000
H 19.53489880 40.98066774 33.13277865 3385 171 0 1.00000000 1.00000000 1.00000000
H 18.86729289 41.99132049 34.53956809 3386 171 0 1.00000000 1.00000000 1.00000000
C 10.14778674 34.02792667 30.84343157 3387 172 0 0.56500000 0.56500000 0.56500000
C 11.48309327 34.37997410 30.14288498 3388 172 0 0.56500000 0.56500000 0.56500000
C 11.94402430 33.24702910 29.20869717 3389 172 0 0.56500000 0.56500000 0.56500000
C 13.30715010 33.49986579 28.67976565 3390 172 0 0.56500000 0.56500000 0.56500000
C 13.98739978 32.30999243 28.02841014 3391 172 0 0.56500000 0.56500000 0.56500000
C 13.14768705 31.84766988 26.78895319 3392 172 0 0.56500000 0.56500000 0.56500000
C 13.49826867 30.49798648 26.06138622 3393 172 0 0.56500000 0.56500000 0.56500000
H 9.74309245 34.78251529 31.46009431 3394 172 0 1.00000000 1.00000000 1.00000000
H 10.24692715 33.17499206 31.47051796 3395 172 0 1.00000000 1.00000000 1.00000000
H 9.32289435 33.77663904 30.11074975 3396 172 0 1.00000000 1.00000000 1.00000000
H 12.26547840 34.65289661 30.88512234 3397 172 0 1.00000000 1.00000000 1.00000000
H 11.36922196 35.34591397 29.63642846 3398 172 0 1.00000000 1.00000000 1.00000000
H 11.28386778 33.23011139 28.40207890 3399 172 0 1.00000000 1.00000000 1.00000000
H 11.86402973 32.27330344 29.63567882 3400 172 0 1.00000000 1.00000000 1.00000000
H 13.87033350 33.84400096 29.58190367 3401 172 0 1.00000000 1.00000000 1.00000000
H 13.30731845 34.33290507 27.98250979 3402 172 0 1.00000000 1.00000000 1.00000000
H 13.97914563 31.42962642 28.65701623 3403 172 0 1.00000000 1.00000000 1.00000000
H 15.02398276 32.62697387 27.70906205 3404 172 0 1.00000000 1.00000000 1.00000000
H 13.26013708 32.53262110 25.94134484 3405 172 0 1.00000000 1.00000000 1.00000000
H 12.05139519 31.75155781 26.91696826 3406 172 0 1.00000000 1.00000000 1.00000000
H 12.79676694 30.40288611 25.21200269 3407 172 0 1.00000000 1.00000000 1.00000000
H 13.37154531 29.64768333 26.74517779 3408 172 0 1.00000000 1.00000000 1.00000000
H 14.53428514 30.55174924 25.75935853 3409 172 0 1.00000000 1.00000000 1.00000000
C 25.68927248 23.64855193 16.81061076 3410 173 0 0.56500000 0.56500000 0.56500000
C 26.67877182 23.48744532 15.67356358 3411 173 0 0.56500000 0.56500000 0.56500000
C 25.94045081 23.44512988 14.36930525 3412 173 0 0.56500000 0.56500000 0.56500000
C 26.75286707 23.42050376 13.07090702 3413 173 0 0.56500000 0.56500000 0.56500000
C 25.81237041 23.83257725 11.84977217 3414 173 0 0.56500000 0.56500000 0.56500000
C 26.63295259 23.66779876 10.54203446 3415 173 0 0.56500000 0.56500000 0.56500000
C 26.07508697 24.29487161 9.36835880 3416 173 0 0.56500000 0.56500000 0.56500000
H 25.17790320 22.71930679 17.01218813 3417 173 0 1.00000000 1.00000000 1.00000000
H 24.87416359 24.33996377 16.52148263 3418 173 0 1.00000000 1.00000000 1.00000000
H 26.14663480 24.02553039 17.76548441 3419 173 0 1.00000000 1.00000000 1.00000000
H 27.35085586 22.59417256 15.91177181 3420 173 0 1.00000000 1.00000000 1.00000000
H 27.32232832 24.37678985 15.65793443 3421 173 0 1.00000000 1.00000000 1.00000000
H 25.30063898 24.28619246 14.22266730 3422 173 0 1.00000000 1.00000000 1.00000000
H 25.27538781 22.57913919 14.22876569 3423 173 0 1.00000000 1.00000000 1.00000000
H 27.18040436 22.47432338 12.97805946 3424 173 0 1.00000000 1.00000000 1.00000000
H 27.61998717 24.06859619 13.11899278 3425 173 0 1.00000000 1.00000000 1.00000000
H 25.30596086 24.78370447 11.85699208 3426 173 0 1.00000000 1.00000000 1.00000000
H 24.88920550 23.14013095 11.77894590 3427 173 0 1.00000000 1.00000000 1.00000000
H 26.70729628 22.56657747 10.29859838 3428 173 0 1.00000000 1.00000000 1.00000000
H 27.63500208 23.94423273 10.73749951 3429 173 0 1.00000000 1.00000000 1.00000000
H 25.65968743 25.29154807 9.53924985 3430 173 0 1.00000000 1.00000000 1.00000000
H 25.20114888 23.77283999 8.99381189 3431 173 0 1.00000000 1.00000000 1.00000000
H 26.81396269 24.49924805 8.59332216 3432 173 0 1.00000000 1.00000000 1.00000000
C 0.27921397 6.44536656 3.52123699 3433 174 0 0.56500000 0.56500000 0.56500000
C 0.05724328 7.40904996 2.37067857 3434 174 0 0.56500000 0.56500000 0.56500000
C -0.64350670 8.70759765 2.90534667 3435 174 0 0.56500000 0.56500000 0.56500000
C 0.20972461 9.98588993 2.72462528 3436 174 0 0.56500000 0.56500000 0.56500000
C 1.44037828 9.90913972 3.70262140 3437 174 0 0.56500000 0.56500000 0.56500000
C 1.00252655 9.95144669 5.12446537 3438 174 0 0.56500000 0.56500000 0.56500000
C 2.08378932 10.29187787 6.12507571 3439 174 0 0.56500000 0.56500000 0.56500000
H 0.89355195 6.93812965 4.30789366 3440 174 0 1.00000000 1.00000000 1.00000000
H 0.85339528 5.57919863 3.20172818 3441 174 0 1.00000000 1.00000000 1.00000000
H -0.59125992 6.14186948 4.06343302 3442 174 0 1.00000000 1.00000000 1.00000000
H -0.67376714 6.97918155 1.65279491 3443 174 0 1.00000000 1.00000000 1.00000000
H 0.92312227 7.63776872 1.75956948 3444 174 0 1.00000000 1.00000000 1.00000000
H -1.07947977 8.61856797 3.85880700 3445 174 0 1.00000000 1.00000000 1.00000000
H -1.58248682 8.84786526 2.31178786 3446 174 0 1.00000000 1.00000000 1.00000000
H -0.31517522 10.93324540 2.86748716 3447 174 0 1.00000000 1.00000000 1.00000000
H 0.63866261 10.02375673 1.72309353 3448 174 0 1.00000000 1.00000000 1.00000000
H 2.04022394 10.81927347 3.42031916 3449 174 0 1.00000000 1.00000000 1.00000000
H 2.14716189 9.16006098 3.43677634 3450 174 0 1.00000000 1.00000000 1.00000000
H 0.57745581 9.02545753 5.51241845 3451 174 0 1.00000000 1.00000000 1.00000000
H 0.13723881 10.62389949 5.30695352 3452 174 0 1.00000000 1.00000000 1.00000000
H 2.38655437 11.28972454 6.04622893 3453 174 0 1.00000000 1.00000000 1.00000000
H 3.02596530 9.75474948 5.89845055 3454 174 0 1.00000000 1.00000000 1.00000000
H 1.78309829 10.08205963 7.14155199 3455 174 0 1.00000000 1.00000000 1.00000000
C 1.46470051 31.84100290 14.81807562 3456 175 0 0.56500000 0.56500000 0.56500000
C 2.70987832 31.28571417 15.57106219 3457 175 0 0.56500000 0.56500000 0.56500000
C 2.20449562 30.72300956 16.95400774 3458 175 0 0.56500000 0.56500000 0.56500000
C 3.34114883 30.25488566 17.81422534 3459 175 0 0.56500000 0.56500000 0.56500000
C 3.90057814 28.89320944 17.46474529 3460 175 0 0.56500000 0.56500000 0.56500000
C 4.98355661 28.43081899 18.48943171 3461 175 0 0.56500000 0.56500000 0.56500000
C 4.34618074 28.06863501 19.79162615 3462 175 0 0.56500000 0.56500000 0.56500000
H 1.11195490 32.82772414 15.15726164 3463 175 0 1.00000000 1.00000000 1.00000000
H 0.67259407 31.08645905 14.86841980 3464 175 0 1.00000000 1.00000000 1.00000000
H 1.65890433 32.05364388 13.76542980 3465 175 0 1.00000000 1.00000000 1.00000000
H 3.45730966 32.12213573 15.80422957 3466 175 0 1.00000000 1.00000000 1.00000000
H 3.27634732 30.56323669 14.93934413 3467 175 0 1.00000000 1.00000000 1.00000000
H 1.60994296 29.83034948 16.75678423 3468 175 0 1.00000000 1.00000000 1.00000000
H 1.60626391 31.55693240 17.39142304 3469 175 0 1.00000000 1.00000000 1.00000000
H 2.97146150 30.32798497 18.81416108 3470 175 0 1.00000000 1.00000000 1.00000000
H 4.21222054 30.91927799 17.69036218 3471 175 0 1.00000000 1.00000000 1.00000000
H 4.28544313 28.99818055 16.41243395 3472 175 0 1.00000000 1.00000000 1.00000000
H 3.17101979 28.14159137 17.52979683 3473 175 0 1.00000000 1.00000000 1.00000000
H 5.71128639 29.21269524 18.73868777 3474 175 0 1.00000000 1.00000000 1.00000000
H 5.55997877 27.57522925 18.14475061 3475 175 0 1.00000000 1.00000000 1.00000000
H 3.93968936 28.90628778 20.32743675 3476 175 0 1.00000000 1.00000000 1.00000000
H 5.04021636 27.49590232 20.46780163 3477 175 0 1.00000000 1.00000000 1.00000000
H 3.49468933 27.42610308 19.68871842 3478 175 0 1.00000000 1.00000000 1.00000000
C 17.41815707 33.79958189 37.11892266 3479 176 0 0.56500000 0.56500000 0.56500000
C 16.79859466 32.81441268 38.06565081 3480 176 0 0.56500000 0.56500000 0.56500000
C 16.58286485 31.44674108 37.54686772 3481 176 0 0.56500000 0.56500000 0.56500000
C 17.73793703 30.86307091 36.73492302 3482 176 0 0.56500000 0.56500000 0.56500000
C 17.30589505 29.48271967 36.20828494 3483 176 0 0.56500000 0.56500000 0.56500000
C 17.24732784 28.52348338 37.37254595 3484 176 0 0.56500000 0.56500000 0.56500000
C 16.91407229 27.12974703 36.87448924 3485 176 0 0.56500000 0.56500000 0.56500000
H 17.85275007 34.71205246 37.61620472 3486 176 0 1.00000000 1.00000000 1.00000000
H 16.62236044 34.22347637 36.56399099 3487 176 0 1.00000000 1.00000000 1.00000000
H 18.15043889 33.34328759 36.44232999 3488 176 0 1.00000000 1.00000000 1.00000000
H 15.86959923 33.23251189 38.46321492 3489 176 0 1.00000000 1.00000000 1.00000000
H 17.44679715 32.82325678 39.00877788 3490 176 0 1.00000000 1.00000000 1.00000000
H 15.68491724 31.48272783 36.84955144 3491 176 0 1.00000000 1.00000000 1.00000000
H 16.30989288 30.89046846 38.39112077 3492 176 0 1.00000000 1.00000000 1.00000000
H 18.64065989 30.85594989 37.34105063 3493 176 0 1.00000000 1.00000000 1.00000000
H 17.93220249 31.53655547 35.87707656 3494 176 0 1.00000000 1.00000000 1.00000000
H 17.89891850 29.10705741 35.39349870 3495 176 0 1.00000000 1.00000000 1.00000000
H 16.26755582 29.63293379 35.80859228 3496 176 0 1.00000000 1.00000000 1.00000000
H 16.51003846 28.96908096 38.08919266 3497 176 0 1.00000000 1.00000000 1.00000000
H 18.26144878 28.57314701 37.96832992 3498 176 0 1.00000000 1.00000000 1.00000000
H 16.12389005 27.24489633 36.10214146 3499 176 0 1.00000000 1.00000000 1.00000000
H 16.51456550 26.51501685 37.62012376 3500 176 0 1.00000000 1.00000000 1.00000000
H 17.77080472 26.62436993 36.41553956 3501 176 0 1.00000000 1.00000000 1.00000000
C 22.05453539 18.90182961 11.80702711 3502 177 0 0.56500000 0.56500000 0.56500000
C 22.16477843 19.11712554 13.34595419 3503 177 0 0.56500000 0.56500000 0.56500000
C 22.24952542 20.62019666 13.61397739 3504 177 0 0.56500000 0.56500000 0.56500000
C 22.00815678 21.06740194 15.11758262 3505 177 0 0.56500000 0.56500000 0.56500000
C 23.20281230 20.67659243 15.96685641 3506 177 0 0.56500000 0.56500000 0.56500000
C 23.26754167 21.05512452 17.42317618 3507 177 0 0.56500000 0.56500000 0.56500000
C 22.00885204 20.60749128 18.25169839 3508 177 0 0.56500000 0.56500000 0.56500000
H 21.06565957 19.20678905 11.51936537 3509 177 0 1.00000000 1.00000000 1.00000000
H 22.36632566 17.85962843 11.55391407 3510 177 0 1.00000000 1.00000000 1.00000000
H 22.76588077 19.60830734 11.32440450 3511 177 0 1.00000000 1.00000000 1.00000000
H 22.98062902 18.47442428 13.75640014 3512 177 0 1.00000000 1.00000000 1.00000000
H 21.23166691 18.80165046 13.78253375 3513 177 0 1.00000000 1.00000000 1.00000000
H 21.68881485 21.15300890 12.91223838 3514 177 0 1.00000000 1.00000000 1.00000000
H 23.29234880 20.83801672 13.34798833 3515 177 0 1.00000000 1.00000000 1.00000000
H 21.15818598 20.56075335 15.55670001 3516 177 0 1.00000000 1.00000000 1.00000000
H 21.78825452 22.12966271 15.20847487 3517 177 0 1.00000000 1.00000000 1.00000000
H 24.06907547 21.07025998 15.46837275 3518 177 0 1.00000000 1.00000000 1.00000000
H 23.30374609 19.53774846 15.88681995 3519 177 0 1.00000000 1.00000000 1.00000000
H 23.17166278 22.12439119 17.42355058 3520 177 0 1.00000000 1.00000000 1.00000000
H 24.20167817 20.63346966 17.84996550 3521 177 0 1.00000000 1.00000000 1.00000000
H 21.02025083 20.88402103 17.86116898 3522 177 0 1.00000000 1.00000000 1.00000000
H 22.12559672 20.99372588 19.25201052 3523 177 0 1.00000000 1.00000000 1.00000000
H 21.98367602 19.52078533 18.42106686 3524 177 0 1.00000000 1.00000000 1.00000000
C 21.17513658 10.31348164 13.02847253 3525 178 0 0.56500000 0.56500000 0.56500000
C 20.17467154 10.17829609 11.85658467 3526 178 0 0.56500000 0.56500000 0.56500000
C 20.74488898 10.64386312 10.48912159 3527 178 0 0.56500000 0.56500000 0.56500000
C 22.03172171 9.96388256 10.17403623 3528 178 0 0.56500000 0.56500000 0.56500000
C 22.74884741 10.49197075 8.90450280 3529 178 0 0.56500000 0.56500000 0.56500000
C 21.96750781 10.21611830 7.65739871 3530 178 0 0.56500000 0.56500000 0.56500000
C 21.56409595 8.74347617 7.35460189 3531 178 0 0.56500000 0.56500000 0.56500000
H 20.74677629 10.05551868 13.97202573 3532 178 0 1.00000000 1.00000000 1.00000000
H 21.48602056 11.35669634 13.07592605 3533 178 0 1.00000000 1.00000000 1.00000000
H 22.08046692 9.70228462 12.92963652 3534 178 0 1.00000000 1.00000000 1.00000000
H 19.30863127 10.74014174 12.06540626 3535 178 0 1.00000000 1.00000000 1.00000000
H 19.79959185 9.14612763 11.87652298 3536 178 0 1.00000000 1.00000000 1.00000000
H 20.99833320 11.68274245 10.76344791 3537 178 0 1.00000000 1.00000000 1.00000000
H 20.09829081 10.67280010 9.61159615 3538 178 0 1.00000000 1.00000000 1.00000000
H 21.83678435 8.87397052 10.07297026 3539 178 0 1.00000000 1.00000000 1.00000000
H 22.79045257 10.02971422 10.97846693 3540 178 0 1.00000000 1.00000000 1.00000000
H 23.60648177 9.82614382 8.89421751 3541 178 0 1.00000000 1.00000000 1.00000000
H 22.97666639 11.61067450 8.87273661 3542 178 0 1.00000000 1.00000000 1.00000000
H 22.57681191 10.58866759 6.81258654 3543 178 0 1.00000000 1.00000000 1.00000000
H 21.04765075 10.85566055 7.57765982 3544 178 0 1.00000000 1.00000000 1.00000000
H 22.49684456 8.21251540 7.39203350 3545 178 0 1.00000000 1.00000000 1.00000000
H 21.07804100 8.73976875 6.42420397 3546 178 0 1.00000000 1.00000000 1.00000000
H 20.91334570 8.30058137 8.11007612 3547 178 0 1.00000000 1.00000000 1.00000000
C 9.24341754 48.01332009 12.16731999 3548 179 0 0.56500000 0.56500000 0.56500000
C 9.24047655 49.32241308 11.40341684 3549 179 0 0.56500000 0.56500000 0.56500000
C 7.85530954 49.89899394 11.35658086 3550 179 0 0.56500000 0.56500000 0.56500000
C 6.71041279 49.05699430 10.74941890 3551 179 0 0.56500000 0.56500000 0.56500000
C 5.37342830 49.83234443 10.89537888 3552 179 0 0.56500000 0.56500000 0.56500000
C 4.14781177 49.04755751 10.46961409 3553 179 0 0.56500000 0.56500000 0.56500000
C 2.80994945 49.59934986 10.93738118 3554 179 0 0.56500000 0.56500000 0.56500000
H 8.94062634 48.29778557 13.17120079 3555 179 0 1.00000000 1.00000000 1.00000000
H 10.19222795 47.42434045 12.15353020 3556 179 0 1.00000000 1.00000000 1.00000000
H 8.51778714 47.34634588 11.66191990 3557 179 0 1.00000000 1.00000000 1.00000000
H 9.55392822 49.03588752 10.41367330 3558 179 0 1.00000000 1.00000000 1.00000000
H 9.89366387 50.11283888 11.90962411 3559 179 0 1.00000000 1.00000000 1.00000000
H 7.83597637 50.83129782 10.80952401 3560 179 0 1.00000000 1.00000000 1.00000000
H 7.65474559 50.17519252 12.39561143 3561 179 0 1.00000000 1.00000000 1.00000000
H 6.67736261 48.06745053 11.28389280 3562 179 0 1.00000000 1.00000000 1.00000000
H 7.06213716 48.79360587 9.76416634 3563 179 0 1.00000000 1.00000000 1.00000000
H 5.47788367 50.79415945 10.37197427 3564 179 0 1.00000000 1.00000000 1.00000000
H 5.20225743 50.13902781 11.92254059 3565 179 0 1.00000000 1.00000000 1.00000000
H 4.24233389 48.04115846 10.94677724 3566 179 0 1.00000000 1.00000000 1.00000000
H 4.19619936 48.74168679 9.42445303 3567 179 0 1.00000000 1.00000000 1.00000000
H 2.73896557 49.69853855 12.00431145 3568 179 0 1.00000000 1.00000000 1.00000000
H 1.88081691 49.23416875 10.51582862 3569 179 0 1.00000000 1.00000000 1.00000000
H 2.80174575 50.64909623 10.54433929 3570 179 0 1.00000000 1.00000000 1.00000000
C 13.71883267 47.34331373 12.78350733 3571 180 0 0.56500000 0.56500000 0.56500000
C 12.87474002 46.11522728 13.12200273 3572 180 0 0.56500000 0.56500000 0.56500000
C 12.41249063 46.00156060 14.54711194 3573 180 0 0.56500000 0.56500000 0.56500000
C 11.41630681 44.95564970 15.00592090 3574 180 0 0.56500000 0.56500000 0.56500000
C 10.32584556 45.45633082 15.94571889 3575 180 0 0.56500000 0.56500000 0.56500000
C 10.81388993 45.94572577 17.33785506 3576 180 0 0.56500000 0.56500000 0.56500000
C 9.79302332 46.07355341 18.43428220 3577 180 0 0.56500000 0.56500000 0.56500000
H 14.07444166 47.53271011 11.76883676 3578 180 0 1.00000000 1.00000000 1.00000000
H 14.63707484 47.38516508 13.40631447 3579 180 0 1.00000000 1.00000000 1.00000000
H 13.13722506 48.26813924 12.96707679 3580 180 0 1.00000000 1.00000000 1.00000000
H 13.34953065 45.18640022 12.96797143 3581 180 0 1.00000000 1.00000000 1.00000000
H 11.97726254 46.00617829 12.50330813 3582 180 0 1.00000000 1.00000000 1.00000000
H 11.95013598 46.91479649 14.86939774 3583 180 0 1.00000000 1.00000000 1.00000000
H 13.31660261 46.00943952 15.16200829 3584 180 0 1.00000000 1.00000000 1.00000000
H 12.00305350 44.14017500 15.36206882 3585 180 0 1.00000000 1.00000000 1.00000000
H 10.88763728 44.57234564 14.17969499 3586 180 0 1.00000000 1.00000000 1.00000000
H 9.62696667 44.67864949 16.04948081 3587 180 0 1.00000000 1.00000000 1.00000000
H 9.85868056 46.32161292 15.49333064 3588 180 0 1.00000000 1.00000000 1.00000000
H 11.50029777 46.84821367 17.27552210 3589 180 0 1.00000000 1.00000000 1.00000000
H 11.58407123 45.21148010 17.62956920 3590 180 0 1.00000000 1.00000000 1.00000000
H 8.96590488 46.76849786 18.15083913 3591 180 0 1.00000000 1.00000000 1.00000000
H 10.38114907 46.52635000 19.26291055 3592 180 0 1.00000000 1.00000000 1.00000000
H 9.29883212 45.14480703 18.73252736 3593 180 0 1.00000000 1.00000000 1.00000000
C 10.18505596 7.81570788 45.76747693 3594 181 0 0.56500000 0.56500000 0.56500000
C 11.44642205 7.67636961 44.87325072 3595 181 0 0.56500000 0.56500000 0.56500000
C 12.72238767 7.28468078 45.59391976 3596 181 0 0.56500000 0.56500000 0.56500000
C 13.86123179 7.17000652 44.57796703 3597 181 0 0.56500000 0.56500000 0.56500000
C 15.15280403 6.62130304 45.10905462 3598 181 0 0.56500000 0.56500000 0.56500000
C 16.15217281 6.22531558 43.97078683 3599 181 0 0.56500000 0.56500000 0.56500000
C 17.56683606 6.00698202 44.52031904 3600 181 0 0.56500000 0.56500000 0.56500000
H 9.24984341 8.09682648 45.30968634 3601 181 0 1.00000000 1.00000000 1.00000000
H 10.43419170 8.55410012 46.55024384 3602 181 0 1.00000000 1.00000000 1.00000000
H 10.05894315 6.88183181 46.33634985 3603 181 0 1.00000000 1.00000000 1.00000000
H 11.70200062 8.63251932 44.27506051 3604 181 0 1.00000000 1.00000000 1.00000000
H 11.30031542 6.88511276 44.08769556 3605 181 0 1.00000000 1.00000000 1.00000000
H 12.60295395 6.26193701 46.10279282 3606 181 0 1.00000000 1.00000000 1.00000000
H 13.07643466 8.04227101 46.34762809 3607 181 0 1.00000000 1.00000000 1.00000000
H 14.06357170 8.14448245 44.15524335 3608 181 0 1.00000000 1.00000000 1.00000000
H 13.42490585 6.67773764 43.64898805 3609 181 0 1.00000000 1.00000000 1.00000000
H 14.94479510 5.75993929 45.80098178 3610 181 0 1.00000000 1.00000000 1.00000000
H 15.70398212 7.42180262 45.65776526 3611 181 0 1.00000000 1.00000000 1.00000000
H 16.20429091 7.01842537 43.21484759 3612 181 0 1.00000000 1.00000000 1.00000000
H 15.91803930 5.24494278 43.49582340 3613 181 0 1.00000000 1.00000000 1.00000000
H 18.27641577 5.80483418 43.74175679 3614 181 0 1.00000000 1.00000000 1.00000000
H 17.60938548 5.16452583 45.17558109 3615 181 0 1.00000000 1.00000000 1.00000000
H 17.77805001 6.90678381 45.09255308 3616 181 0 1.00000000 1.00000000 1.00000000
C 15.99945555 51.35630681 -4.58990991 3617 182 0 0.56500000 0.56500000 0.56500000
C 15.75923094 49.84389107 -4.47426202 3618 182 0 0.56500000 0.56500000 0.56500000
C 16.98578543 48.98182130 -4.36092217 3619 182 0 0.56500000 0.56500000 0.56500000
C 16.72241934 47.67774373 -3.72897469 3620 182 0 0.56500000 0.56500000 0.56500000
C 15.91717006 46.62454031 -4.51045335 3621 182 0 0.56500000 0.56500000 0.56500000
C 15.35851761 45.66810406 -3.40393617 3622 182 0 0.56500000 0.56500000 0.56500000
C 14.49910459 44.46547962 -3.82218107 3623 182 0 0.56500000 0.56500000 0.56500000
H 16.83918316 51.70918878 -4.01942333 3624 182 0 1.00000000 1.00000000 1.00000000
H 15.08704973 51.82201682 -4.34571363 3625 182 0 1.00000000 1.00000000 1.00000000
H 16.24015045 51.68111934 -5.59157414 3626 182 0 1.00000000 1.00000000 1.00000000
H 15.18758785 49.58234746 -5.31958424 3627 182 0 1.00000000 1.00000000 1.00000000
H 15.15901182 49.70843161 -3.50018274 3628 182 0 1.00000000 1.00000000 1.00000000
H 17.78311782 49.48480276 -3.72651385 3629 182 0 1.00000000 1.00000000 1.00000000
H 17.46501645 48.74774087 -5.33650285 3630 182 0 1.00000000 1.00000000 1.00000000
H 16.17273243 47.85797913 -2.78755223 3631 182 0 1.00000000 1.00000000 1.00000000
H 17.69045702 47.19856448 -3.43712012 3632 182 0 1.00000000 1.00000000 1.00000000
H 16.58206624 46.24693805 -5.25903196 3633 182 0 1.00000000 1.00000000 1.00000000
H 15.04515217 47.11312328 -4.96983576 3634 182 0 1.00000000 1.00000000 1.00000000
H 14.71373318 46.18001486 -2.68624949 3635 182 0 1.00000000 1.00000000 1.00000000
H 16.25221829 45.37591178 -2.87008545 3636 182 0 1.00000000 1.00000000 1.00000000
H 14.98860228 43.84415102 -4.53993716 3637 182 0 1.00000000 1.00000000 1.00000000
H 13.56044514 44.79928451 -4.17544581 3638 182 0 1.00000000 1.00000000 1.00000000
H 14.44773349 43.85230878 -2.89772491 3639 182 0 1.00000000 1.00000000 1.00000000
C 6.77153783 14.70297932 13.22594090 3640 183 0 0.56500000 0.56500000 0.56500000
C 6.29386723 14.29604827 14.54655131 3641 183 0 0.56500000 0.56500000 0.56500000
C 4.72307818 14.34069001 14.51527455 3642 183 0 0.56500000 0.56500000 0.56500000
C 4.06107405 13.41100878 15.55575539 3643 183 0 0.56500000 0.56500000 0.56500000
C 4.60974137 13.35051981 16.95717729 3644 183 0 0.56500000 0.56500000 0.56500000
C 4.02769424 12.33388126 17.94900523 3645 183 0 0.56500000 0.56500000 0.56500000
C 4.42010543 12.66822594 19.37392899 3646 183 0 0.56500000 0.56500000 0.56500000
H 6.29815514 14.00048231 12.51206758 3647 183 0 1.00000000 1.00000000 1.00000000
H 7.82079330 14.54163878 13.23889565 3648 183 0 1.00000000 1.00000000 1.00000000
H 6.54799602 15.73222327 13.01739352 3649 183 0 1.00000000 1.00000000 1.00000000
H 6.58040522 14.88172081 15.38097924 3650 183 0 1.00000000 1.00000000 1.00000000
H 6.62746858 13.27063213 14.85975767 3651 183 0 1.00000000 1.00000000 1.00000000
H 4.43624374 13.91514795 13.49944912 3652 183 0 1.00000000 1.00000000 1.00000000
H 4.42877594 15.32796659 14.70091316 3653 183 0 1.00000000 1.00000000 1.00000000
H 4.07751832 12.43911412 15.09457077 3654 183 0 1.00000000 1.00000000 1.00000000
H 2.98372471 13.72535024 15.58531339 3655 183 0 1.00000000 1.00000000 1.00000000
H 4.78535337 14.33387542 17.38985694 3656 183 0 1.00000000 1.00000000 1.00000000
H 5.69958965 13.01465178 16.72648778 3657 183 0 1.00000000 1.00000000 1.00000000
H 4.28769166 11.30128384 17.76804135 3658 183 0 1.00000000 1.00000000 1.00000000
H 2.96830820 12.40942012 17.84582843 3659 183 0 1.00000000 1.00000000 1.00000000
H 5.52700450 12.68131549 19.49962517 3660 183 0 1.00000000 1.00000000 1.00000000
H 4.03313822 11.89580417 20.03920881 3661 183 0 1.00000000 1.00000000 1.00000000
H 4.08819960 13.62140005 19.82398682 3662 183 0 1.00000000 1.00000000 1.00000000
C 6.14201870 44.47479139 11.94894167 3663 184 0 0.56500000 0.56500000 0.56500000
C 5.63201144 43.11714002 11.39759787 3664 184 0 0.56500000 0.56500000 0.56500000
C 4.12031866 42.87622028 11.64834416 3665 184 0 0.56500000 0.56500000 0.56500000
C 3.18159078 43.94954741 11.08106895 3666 184 0 0.56500000 0.56500000 0.56500000
C 1.70902205 43.58893671 11.31621198 3667 184 0 0.56500000 0.56500000 0.56500000
C 0.68716509 44.70855899 11.08144265 3668 184 0 0.56500000 0.56500000 0.56500000
C 0.42164026 45.25768685 9.69416207 3669 184 0 0.56500000 0.56500000 0.56500000
H 5.65268465 44.55809310 12.92906583 3670 184 0 1.00000000 1.00000000 1.00000000
H 5.81601747 45.25969555 11.22791284 3671 184 0 1.00000000 1.00000000 1.00000000
H 7.21354430 44.50694910 12.01227193 3672 184 0 1.00000000 1.00000000 1.00000000
H 6.13447593 42.29974028 11.93916826 3673 184 0 1.00000000 1.00000000 1.00000000
H 5.89927069 42.93538507 10.37141904 3674 184 0 1.00000000 1.00000000 1.00000000
H 4.06619198 42.92527198 12.76048648 3675 184 0 1.00000000 1.00000000 1.00000000
H 3.83432104 41.87267853 11.38976816 3676 184 0 1.00000000 1.00000000 1.00000000
H 3.40239270 44.03812123 10.00531164 3677 184 0 1.00000000 1.00000000 1.00000000
H 3.41645637 44.86338336 11.67833780 3678 184 0 1.00000000 1.00000000 1.00000000
H 1.52583424 43.30380045 12.31261501 3679 184 0 1.00000000 1.00000000 1.00000000
H 1.42985543 42.75679341 10.60928928 3680 184 0 1.00000000 1.00000000 1.00000000
H 0.85120196 45.47873004 11.81056690 3681 184 0 1.00000000 1.00000000 1.00000000
H -0.30245892 44.21435251 11.36092243 3682 184 0 1.00000000 1.00000000 1.00000000
H 1.35673388 45.66735826 9.20601519 3683 184 0 1.00000000 1.00000000 1.00000000
H -0.27774913 46.06064032 9.76345181 3684 184 0 1.00000000 1.00000000 1.00000000
H 0.15205944 44.41712699 8.99753193 3685 184 0 1.00000000 1.00000000 1.00000000
C 8.25880784 2.39418224 19.74852432 3686 185 0 0.56500000 0.56500000 0.56500000
C 7.03524193 2.87095324 20.58809906 3687 185 0 0.56500000 0.56500000 0.56500000
C 6.02491301 1.76044245 20.81707426 3688 185 0 0.56500000 0.56500000 0.56500000
C 4.92017987 2.25662614 21.73165999 3689 185 0 0.56500000 0.56500000 0.56500000
C 3.81348629 1.05260954 21.76927999 3690 185 0 0.56500000 0.56500000 0.56500000
C 2.60444298 1.42628869 22.63538654 3691 185 0 0.56500000 0.56500000 0.56500000
C 1.35907139 0.57438080 22.68610380 3692 185 0 0.56500000 0.56500000 0.56500000
H 8.69595710 1.49483659 20.21267633 3693 185 0 1.00000000 1.00000000 1.00000000
H 9.02253002 3.11527093 19.48879684 3694 185 0 1.00000000 1.00000000 1.00000000
H 7.83046539 2.12187785 18.77099150 3695 185 0 1.00000000 1.00000000 1.00000000
H 6.59233087 3.71690990 20.03510997 3696 185 0 1.00000000 1.00000000 1.00000000
H 7.40503644 3.15289526 21.53981805 3697 185 0 1.00000000 1.00000000 1.00000000
H 6.42770115 0.84101526 21.17901486 3698 185 0 1.00000000 1.00000000 1.00000000
H 5.59433051 1.41593992 19.83008081 3699 185 0 1.00000000 1.00000000 1.00000000
H 4.43719992 3.15557193 21.49336046 3700 185 0 1.00000000 1.00000000 1.00000000
H 5.26606058 2.33320340 22.74670338 3701 185 0 1.00000000 1.00000000 1.00000000
H 4.28405130 0.12443758 22.26667780 3702 185 0 1.00000000 1.00000000 1.00000000
H 3.61596854 0.71933936 20.76954280 3703 185 0 1.00000000 1.00000000 1.00000000
H 2.31371566 2.48776033 22.33789453 3704 185 0 1.00000000 1.00000000 1.00000000
H 3.04952347 1.52367340 23.68540895 3705 185 0 1.00000000 1.00000000 1.00000000
H 0.81882387 0.85298482 23.66442302 3706 185 0 1.00000000 1.00000000 1.00000000
H 1.72547813 -0.49691216 22.89924076 3707 185 0 1.00000000 1.00000000 1.00000000
H 0.63128450 0.54718179 21.90928786 3708 185 0 1.00000000 1.00000000 1.00000000
C 15.64313331 35.75109758 42.68811940 3709 186 0 0.56500000 0.56500000 0.56500000
C 15.14348770 36.82873770 43.71822478 3710 186 0 0.56500000 0.56500000 0.56500000
C 14.04600767 37.79043541 43.05690879 3711 186 0 0.56500000 0.56500000 0.56500000
C 14.56397375 38.48488066 41.82183956 3712 186 0 0.56500000 0.56500000 0.56500000
C 13.75292525 39.65701128 41.42178990 3713 186 0 0.56500000 0.56500000 0.56500000
C 13.92539365 40.24330632 40.01838711 3714 186 0 0.56500000 0.56500000 0.56500000
C 13.68540716 39.23765905 38.93382600 3715 186 0 0.56500000 0.56500000 0.56500000
H 16.13270904 36.26277818 41.88101024 3716 186 0 1.00000000 1.00000000 1.00000000
H 14.72864971 35.33048760 42.26461433 3717 186 0 1.00000000 1.00000000 1.00000000
H 16.29361540 34.96854092 43.04827143 3718 186 0 1.00000000 1.00000000 1.00000000
H 15.90993068 37.48697432 44.06898241 3719 186 0 1.00000000 1.00000000 1.00000000
H 14.71294255 36.37480545 44.59824840 3720 186 0 1.00000000 1.00000000 1.00000000
H 13.77871722 38.54943083 43.78192058 3721 186 0 1.00000000 1.00000000 1.00000000
H 13.22347638 37.07191773 42.93572877 3722 186 0 1.00000000 1.00000000 1.00000000
H 14.76572940 37.78554866 41.00450965 3723 186 0 1.00000000 1.00000000 1.00000000
H 15.61113716 38.69773424 42.15004335 3724 186 0 1.00000000 1.00000000 1.00000000
H 13.94748584 40.43193302 42.15399216 3725 186 0 1.00000000 1.00000000 1.00000000
H 12.66958262 39.37999384 41.51485479 3726 186 0 1.00000000 1.00000000 1.00000000
H 14.94745731 40.56579263 39.87520382 3727 186 0 1.00000000 1.00000000 1.00000000
H 13.37209101 41.17986129 39.85998906 3728 186 0 1.00000000 1.00000000 1.00000000
H 12.72254630 38.72197700 39.14061942 3729 186 0 1.00000000 1.00000000 1.00000000
H 14.36219274 38.40373851 38.94372574 3730 186 0 1.00000000 1.00000000 1.00000000
H 13.67631686 39.76460354 37.98476916 3731 186 0 1.00000000 1.00000000 1.00000000
C 29.10917340 30.04291620 32.98498051 3732 187 0 0.56500000 0.56500000 0.56500000
C 28.86016286 30.66710125 31.64435007 3733 187 0 0.56500000 0.56500000 0.56500000
C 29.49730435 29.73465596 30.49310106 3734 187 0 0.56500000 0.56500000 0.56500000
C 29.28636372 30.37856194 29.12085768 3735 187 0 0.56500000 0.56500000 0.56500000
C 30.16352385 29.69211359 27.99315381 3736 187 0 0.56500000 0.56500000 0.56500000
C 30.14871384 30.43167440 26.59948449 3737 187 0 0.56500000 0.56500000 0.56500000
C 30.99047344 31.60387117 26.50729819 3738 187 0 0.56500000 0.56500000 0.56500000
H 30.20358377 29.92754089 33.08034867 3739 187 0 1.00000000 1.00000000 1.00000000
H 28.77536599 29.01417924 33.03043276 3740 187 0 1.00000000 1.00000000 1.00000000
H 28.77416993 30.63263110 33.90142502 3741 187 0 1.00000000 1.00000000 1.00000000
H 29.42612961 31.57436123 31.50653738 3742 187 0 1.00000000 1.00000000 1.00000000
H 27.77369699 30.99253271 31.48089500 3743 187 0 1.00000000 1.00000000 1.00000000
H 29.04291283 28.71044056 30.48815960 3744 187 0 1.00000000 1.00000000 1.00000000
H 30.59459588 29.72499290 30.67157848 3745 187 0 1.00000000 1.00000000 1.00000000
H 29.47861108 31.49519490 29.08861757 3746 187 0 1.00000000 1.00000000 1.00000000
H 28.25331382 30.38846808 28.75168728 3747 187 0 1.00000000 1.00000000 1.00000000
H 29.73570690 28.68500063 27.78243871 3748 187 0 1.00000000 1.00000000 1.00000000
H 31.16551856 29.45782401 28.42737192 3749 187 0 1.00000000 1.00000000 1.00000000
H 29.16915540 30.75057457 26.29262311 3750 187 0 1.00000000 1.00000000 1.00000000
H 30.45569506 29.70683502 25.78913272 3751 187 0 1.00000000 1.00000000 1.00000000
H 31.07774880 31.95065267 25.49521357 3752 187 0 1.00000000 1.00000000 1.00000000
H 31.99308133 31.36109014 26.84370488 3753 187 0 1.00000000 1.00000000 1.00000000
H 30.77332696 32.48786848 27.23693781 3754 187 0 1.00000000 1.00000000 1.00000000
C 10.93096489 30.46996780 9.72438080 3755 188 0 0.56500000 0.56500000 0.56500000
C 11.49347308 31.48814347 10.70879900 3756 188 0 0.56500000 0.56500000 0.56500000
C 10.90736562 32.91118045 10.56920388 3757 188 0 0.56500000 0.56500000 0.56500000
C 10.92538515 33.88438526 11.74967817 3758 188 0 0.56500000 0.56500000 0.56500000
C 10.22440887 33.48849633 13.01982138 3759 188 0 0.56500000 0.56500000 0.56500000
C 10.50687618 34.68238862 14.07535194 3760 188 0 0.56500000 0.56500000 0.56500000
C 10.93404215 34.28264722 15.47924943 3761 188 0 0.56500000 0.56500000 0.56500000
H 11.61826213 29.61078425 9.59742995 3762 188 0 1.00000000 1.00000000 1.00000000
H 10.77230897 30.87692105 8.73485303 3763 188 0 1.00000000 1.00000000 1.00000000
H 10.00223782 30.06415831 10.07047210 3764 188 0 1.00000000 1.00000000 1.00000000
H 12.56271965 31.61424204 10.54425753 3765 188 0 1.00000000 1.00000000 1.00000000
H 11.32385749 31.11172290 11.71095451 3766 188 0 1.00000000 1.00000000 1.00000000
H 9.88230795 32.84020675 10.12997282 3767 188 0 1.00000000 1.00000000 1.00000000
H 11.47967453 33.43148166 9.80061464 3768 188 0 1.00000000 1.00000000 1.00000000
H 10.41199040 34.82002870 11.35330972 3769 188 0 1.00000000 1.00000000 1.00000000
H 11.92674344 34.10548145 11.96155083 3770 188 0 1.00000000 1.00000000 1.00000000
H 10.70506087 32.64209969 13.42946141 3771 188 0 1.00000000 1.00000000 1.00000000
H 9.16052581 33.35596636 12.98796608 3772 188 0 1.00000000 1.00000000 1.00000000
H 9.57914396 35.22717634 14.14078390 3773 188 0 1.00000000 1.00000000 1.00000000
H 11.26964262 35.39287494 13.68842152 3774 188 0 1.00000000 1.00000000 1.00000000
H 11.95073458 33.84815769 15.53936656 3775 188 0 1.00000000 1.00000000 1.00000000
H 10.19727224 33.45690391 15.77690598 3776 188 0 1.00000000 1.00000000 1.00000000
H 10.78345352 35.09532942 16.20032121 3777 188 0 1.00000000 1.00000000 1.00000000
C 34.23703456 42.27022614 34.75056760 3778 189 0 0.56500000 0.56500000 0.56500000
C 33.39550759 41.94495561 35.99679450 3779 189 0 0.56500000 0.56500000 0.56500000
C 32.23005119 41.01158636 35.60600724 3780 189 0 0.56500000 0.56500000 0.56500000
C 31.31032721 40.78321874 36.79732981 3781 189 0 0.56500000 0.56500000 0.56500000
C 30.10382885 39.79153050 36.69163439 3782 189 0 0.56500000 0.56500000 0.56500000
C 29.32293695 39.53722018 38.05820070 3783 189 0 0.56500000 0.56500000 0.56500000
C 28.19316399 40.58755656 38.28277434 3784 189 0 0.56500000 0.56500000 0.56500000
H 34.79202677 43.18808740 34.84730438 3785 189 0 1.00000000 1.00000000 1.00000000
H 33.70161555 42.27242766 33.77682985 3786 189 0 1.00000000 1.00000000 1.00000000
H 35.01988409 41.49973321 34.61445790 3787 189 0 1.00000000 1.00000000 1.00000000
H 32.83036032 42.83396142 36.34805815 3788 189 0 1.00000000 1.00000000 1.00000000
H 34.00112322 41.71019371 36.88758106 3789 189 0 1.00000000 1.00000000 1.00000000
H 32.56757747 40.09683287 35.20631118 3790 189 0 1.00000000 1.00000000 1.00000000
H 31.67704469 41.53772434 34.78310042 3791 189 0 1.00000000 1.00000000 1.00000000
H 30.88103453 41.83507446 36.99059171 3792 189 0 1.00000000 1.00000000 1.00000000
H 31.83359268 40.62095531 37.79073211 3793 189 0 1.00000000 1.00000000 1.00000000
H 30.60919747 38.84638705 36.37204996 3794 189 0 1.00000000 1.00000000 1.00000000
H 29.38284079 40.05095755 35.92459897 3795 189 0 1.00000000 1.00000000 1.00000000
H 30.09863340 39.66710667 38.83252547 3796 189 0 1.00000000 1.00000000 1.00000000
H 28.88895080 38.53221297 38.14110029 3797 189 0 1.00000000 1.00000000 1.00000000
H 27.91657842 40.61029958 39.31796610 3798 189 0 1.00000000 1.00000000 1.00000000
H 27.33306160 40.27592403 37.68650862 3799 189 0 1.00000000 1.00000000 1.00000000
H 28.49613642 41.57181202 37.96209867 3800 189 0 1.00000000 1.00000000 1.00000000
C 23.64542274 38.10443197 7.58907952 3801 190 0 0.56500000 0.56500000 0.56500000
C 23.96063450 36.78788571 8.21431143 3802 190 0 0.56500000 0.56500000 0.56500000
C 25.41173746 36.40320744 7.80940916 3803 190 0 0.56500000 0.56500000 0.56500000
C 26.08913954 35.44574680 8.74673716 3804 190 0 0.56500000 0.56500000 0.56500000
C 25.42297298 34.04930827 8.85965158 3805 190 0 0.56500000 0.56500000 0.56500000
C 26.26594268 33.10055047 9.61633506 3806 190 0 0.56500000 0.56500000 0.56500000
C 25.69731355 31.65005292 9.73299036 3807 190 0 0.56500000 0.56500000 0.56500000
H 23.52810605 38.11360266 6.54253015 3808 190 0 1.00000000 1.00000000 1.00000000
H 24.51450578 38.73537985 7.73559605 3809 190 0 1.00000000 1.00000000 1.00000000
H 22.75044676 38.59489906 8.04330990 3810 190 0 1.00000000 1.00000000 1.00000000
H 23.26116243 35.93661477 7.92588983 3811 190 0 1.00000000 1.00000000 1.00000000
H 23.91145700 36.91358564 9.33434538 3812 190 0 1.00000000 1.00000000 1.00000000
H 26.03270688 37.32274807 7.95393429 3813 190 0 1.00000000 1.00000000 1.00000000
H 25.40608242 36.00451367 6.77373283 3814 190 0 1.00000000 1.00000000 1.00000000
H 26.17945571 35.76092434 9.87653889 3815 190 0 1.00000000 1.00000000 1.00000000
H 27.11234590 35.25333504 8.52077055 3816 190 0 1.00000000 1.00000000 1.00000000
H 25.36579907 33.64155221 7.86145582 3817 190 0 1.00000000 1.00000000 1.00000000
H 24.37761643 34.14383262 9.29789459 3818 190 0 1.00000000 1.00000000 1.00000000
H 26.41127606 33.37271341 10.67945058 3819 190 0 1.00000000 1.00000000 1.00000000
H 27.28347217 33.02842104 9.13980118 3820 190 0 1.00000000 1.00000000 1.00000000
H 24.71892286 31.57556193 10.23903006 3821 190 0 1.00000000 1.00000000 1.00000000
H 26.36578313 30.87435737 10.26953615 3822 190 0 1.00000000 1.00000000 1.00000000
H 25.42115313 31.20794200 8.74852699 3823 190 0 1.00000000 1.00000000 1.00000000
C 25.19732611 45.07838145 19.84077364 3824 191 0 0.56500000 0.56500000 0.56500000
C 25.39139408 43.57576277 19.82132375 3825 191 0 0.56500000 0.56500000 0.56500000
C 26.64229191 43.08372623 20.57043759 3826 191 0 0.56500000 0.56500000 0.56500000
C 27.86881913 43.83488432 19.98461602 3827 191 0 0.56500000 0.56500000 0.56500000
C 28.32186378 43.37468926 18.57978693 3828 191 0 0.56500000 0.56500000 0.56500000
C 29.84659004 43.13045620 18.45137065 3829 191 0 0.56500000 0.56500000 0.56500000
C 30.29394399 41.85701843 19.09656004 3830 191 0 0.56500000 0.56500000 0.56500000
H 24.22490221 45.41193447 19.35297107 3831 191 0 1.00000000 1.00000000 1.00000000
H 25.96395761 45.59370092 19.31699495 3832 191 0 1.00000000 1.00000000 1.00000000
H 25.21150947 45.47266093 20.80437266 3833 191 0 1.00000000 1.00000000 1.00000000
H 25.43922560 43.21824446 18.76671636 3834 191 0 1.00000000 1.00000000 1.00000000
H 24.51033001 43.04851635 20.27206648 3835 191 0 1.00000000 1.00000000 1.00000000
H 26.80975320 42.01486806 20.34893405 3836 191 0 1.00000000 1.00000000 1.00000000
H 26.47351088 43.23936134 21.63014396 3837 191 0 1.00000000 1.00000000 1.00000000
H 28.70767222 43.57612415 20.70598864 3838 191 0 1.00000000 1.00000000 1.00000000
H 27.75690170 44.94846742 20.10117530 3839 191 0 1.00000000 1.00000000 1.00000000
H 27.94969061 44.09066948 17.80510436 3840 191 0 1.00000000 1.00000000 1.00000000
H 27.83295086 42.42237645 18.33999766 3841 191 0 1.00000000 1.00000000 1.00000000
H 30.45578794 43.95465659 18.84171289 3842 191 0 1.00000000 1.00000000 1.00000000
H 30.04161077 43.01124910 17.37849810 3843 191 0 1.00000000 1.00000000 1.00000000
H 30.25753559 41.92256466 20.20351423 3844 191 0 1.00000000 1.00000000 1.00000000
H 31.33626779 41.59113657 18.83417089 3845 191 0 1.00000000 1.00000000 1.00000000
H 29.69290005 41.01864495 18.84196698 3846 191 0 1.00000000 1.00000000 1.00000000
C 33.59277256 18.68671725 1.09042747 3847 192 0 0.56500000 0.56500000 0.56500000
C 34.96344274 17.94862466 0.60606380 3848 192 0 0.56500000 0.56500000 0.56500000
C 35.62721235 18.82236242 -0.61213996 3849 192 0 0.56500000 0.56500000 0.56500000
C 36.90579420 18.16137354 -1.04422635 3850 192 0 0.56500000 0.56500000 0.56500000
C 37.66705089 18.81112874 -2.20780545 3851 192 0 0.56500000 0.56500000 0.56500000
C 36.84728149 18.90301236 -3.52579649 3852 192 0 0.56500000 0.56500000 0.56500000
C 36.28527774 17.62339297 -4.04688362 3853 192 0 0.56500000 0.56500000 0.56500000
H 33.01108820 18.05674108 1.69550907 3854 192 0 1.00000000 1.00000000 1.00000000
H 32.92558073 18.94490611 0.29183276 3855 192 0 1.00000000 1.00000000 1.00000000
H 33.88409400 19.62688063 1.54612719 3856 192 0 1.00000000 1.00000000 1.00000000
H 34.73888457 16.87553786 0.33336523 3857 192 0 1.00000000 1.00000000 1.00000000
H 35.69605855 17.91108697 1.40092943 3858 192 0 1.00000000 1.00000000 1.00000000
H 35.78329647 19.87621470 -0.20765602 3859 192 0 1.00000000 1.00000000 1.00000000
H 34.92072831 18.77846317 -1.46389612 3860 192 0 1.00000000 1.00000000 1.00000000
H 36.76711081 17.11511258 -1.22443404 3861 192 0 1.00000000 1.00000000 1.00000000
H 37.59989525 18.11290792 -0.18716444 3862 192 0 1.00000000 1.00000000 1.00000000
H 38.55624685 18.18686066 -2.50853173 3863 192 0 1.00000000 1.00000000 1.00000000
H 38.03531371 19.75717314 -1.74126876 3864 192 0 1.00000000 1.00000000 1.00000000
H 37.50291136 19.36048168 -4.23726471 3865 192 0 1.00000000 1.00000000 1.00000000
H 36.01693274 19.54090808 -3.33939294 3866 192 0 1.00000000 1.00000000 1.00000000
H 35.75675294 17.75193438 -4.99752778 3867 192 0 1.00000000 1.00000000 1.00000000
H 35.54078550 17.29682129 -3.33428201 3868 192 0 1.00000000 1.00000000 1.00000000
H 36.95277427 16.71980180 -3.99139228 3869 192 0 1.00000000 1.00000000 1.00000000
C 16.84953408 15.27502253 19.82024901 3870 193 0 0.56500000 0.56500000 0.56500000
C 17.00892337 14.52198945 18.49084688 3871 193 0 0.56500000 0.56500000 0.56500000
C 18.39092839 14.09100355 18.12324446 3872 193 0 0.56500000 0.56500000 0.56500000
C 19.34547079 15.20903051 17.67507765 3873 193 0 0.56500000 0.56500000 0.56500000
C 20.81205543 14.81613697 17.50011344 3874 193 0 0.56500000 0.56500000 0.56500000
C 20.91720218 13.75099119 16.38600005 3875 193 0 0.56500000 0.56500000 0.56500000
C 22.38324550 13.48467948 15.84434121 3876 193 0 0.56500000 0.56500000 0.56500000
H 15.77429042 15.65201837 19.79165543 3877 193 0 1.00000000 1.00000000 1.00000000
H 17.53017258 16.14421398 19.75890112 3878 193 0 1.00000000 1.00000000 1.00000000
H 17.02396901 14.66592025 20.67149805 3879 193 0 1.00000000 1.00000000 1.00000000
H 16.56113938 15.07942158 17.65227418 3880 193 0 1.00000000 1.00000000 1.00000000
H 16.36667718 13.61065581 18.41049400 3881 193 0 1.00000000 1.00000000 1.00000000
H 18.34524361 13.36302934 17.31972737 3882 193 0 1.00000000 1.00000000 1.00000000
H 18.81242539 13.61477750 19.02055185 3883 193 0 1.00000000 1.00000000 1.00000000
H 19.34554820 15.98776170 18.49341635 3884 193 0 1.00000000 1.00000000 1.00000000
H 18.89793419 15.68282754 16.81666739 3885 193 0 1.00000000 1.00000000 1.00000000
H 21.30438929 14.33598154 18.43324382 3886 193 0 1.00000000 1.00000000 1.00000000
H 21.40612925 15.76017492 17.20739443 3887 193 0 1.00000000 1.00000000 1.00000000
H 20.41946246 14.13186802 15.46119471 3888 193 0 1.00000000 1.00000000 1.00000000
H 20.41929970 12.79600162 16.57143869 3889 193 0 1.00000000 1.00000000 1.00000000
H 23.03891644 13.10736272 16.57407765 3890 193 0 1.00000000 1.00000000 1.00000000
H 22.82898497 14.39151434 15.46407021 3891 193 0 1.00000000 1.00000000 1.00000000
H 22.36561920 12.82435436 14.95356633 3892 193 0 1.00000000 1.00000000 1.00000000
C 5.66216797 3.63763029 26.79013665 3893 194 0 0.56500000 0.56500000 0.56500000
C 5.01006381 4.32626054 25.54066810 3894 194 0 0.56500000 0.56500000 0.56500000
C 6.00483116 5.09151866 24.65354003 3895 194 0 0.56500000 0.56500000 0.56500000
C 5.32166183 6.00888666 23.61612262 3896 194 0 0.56500000 0.56500000 0.56500000
C 3.93394389 6.80903436 23.80945665 3897 194 0 0.56500000 0.56500000 0.56500000
C 3.88976831 7.88245038 22.77718635 3898 194 0 0.56500000 0.56500000 0.56500000
C 2.50728340 8.59447082 22.65360469 3899 194 0 0.56500000 0.56500000 0.56500000
H 6.72011931 3.48594019 26.47005496 3900 194 0 1.00000000 1.00000000 1.00000000
H 5.30066418 2.72480207 27.17238332 3901 194 0 1.00000000 1.00000000 1.00000000
H 5.65057372 4.48019884 27.50666653 3902 194 0 1.00000000 1.00000000 1.00000000
H 4.19596200 5.00293912 25.74901100 3903 194 0 1.00000000 1.00000000 1.00000000
H 4.62918560 3.53862843 24.95518795 3904 194 0 1.00000000 1.00000000 1.00000000
H 6.56447421 4.39268350 24.04252509 3905 194 0 1.00000000 1.00000000 1.00000000
H 6.69878705 5.69434748 25.27905168 3906 194 0 1.00000000 1.00000000 1.00000000
H 5.18207069 5.43142351 22.71380033 3907 194 0 1.00000000 1.00000000 1.00000000
H 5.97024765 6.81861608 23.46135985 3908 194 0 1.00000000 1.00000000 1.00000000
H 3.84030654 7.28171750 24.77828231 3909 194 0 1.00000000 1.00000000 1.00000000
H 3.12172343 6.12806733 23.76923237 3910 194 0 1.00000000 1.00000000 1.00000000
H 4.16228464 7.54740233 21.78804841 3911 194 0 1.00000000 1.00000000 1.00000000
H 4.69821127 8.57051676 23.03751595 3912 194 0 1.00000000 1.00000000 1.00000000
H 2.46485190 9.49991379 22.18771178 3913 194 0 1.00000000 1.00000000 1.00000000
H 1.98196573 8.77304253 23.54615638 3914 194 0 1.00000000 1.00000000 1.00000000
H 1.86660416 7.93856474 22.03605173 3915 194 0 1.00000000 1.00000000 1.00000000
C 36.15572916 19.54666638 34.03503009 3916 195 0 0.56500000 0.56500000 0.56500000
C 35.74541915 19.21847703 32.65769951 3917 195 0 0.56500000 0.56500000 0.56500000
C 34.98240965 17.88836077 32.54816288 3918 195 0 0.56500000 0.56500000 0.56500000
C 34.94863125 17.41659401 31.09171302 3919 195 0 0.56500000 0.56500000 0.56500000
C 36.09935808 16.46102845 30.72319224 3920 195 0 0.56500000 0.56500000 0.56500000
C 36.17025059 15.92242377 29.34552875 3921 195 0 0.56500000 0.56500000 0.56500000
C 36.65518252 16.91860535 28.32273536 3922 195 0 0.56500000 0.56500000 0.56500000
H 36.69797269 18.80889342 34.61973443 3923 195 0 1.00000000 1.00000000 1.00000000
H 35.17745909 19.72821804 34.61430948 3924 195 0 1.00000000 1.00000000 1.00000000
H 36.69194944 20.49168420 34.03017970 3925 195 0 1.00000000 1.00000000 1.00000000
H 36.61695449 19.10079466 31.99428646 3926 195 0 1.00000000 1.00000000 1.00000000
H 34.97064520 20.00926659 32.23820959 3927 195 0 1.00000000 1.00000000 1.00000000
H 33.93440831 18.25108534 32.96480550 3928 195 0 1.00000000 1.00000000 1.00000000
H 35.34189679 17.14154260 33.20364097 3929 195 0 1.00000000 1.00000000 1.00000000
H 34.83742398 18.27293440 30.39576778 3930 195 0 1.00000000 1.00000000 1.00000000
H 33.96900215 16.83811270 31.04252170 3931 195 0 1.00000000 1.00000000 1.00000000
H 35.89493948 15.53672928 31.36539256 3932 195 0 1.00000000 1.00000000 1.00000000
H 37.01223481 16.90922431 31.00270834 3933 195 0 1.00000000 1.00000000 1.00000000
H 35.12486521 15.67319488 28.98876979 3934 195 0 1.00000000 1.00000000 1.00000000
H 36.81383675 14.98053690 29.43857288 3935 195 0 1.00000000 1.00000000 1.00000000
H 37.55086136 17.39530776 28.56316987 3936 195 0 1.00000000 1.00000000 1.00000000
H 35.95652055 17.71290711 28.24682858 3937 195 0 1.00000000 1.00000000 1.00000000
H 36.83764677 16.48317409 27.36951865 3938 195 0 1.00000000 1.00000000 1.00000000
C 29.19497575 11.03210215 -6.32819186 3939 196 0 0.56500000 0.56500000 0.56500000
C 28.52117522 10.87141103 -5.02778768 3940 196 0 0.56500000 0.56500000 0.56500000
C 28.50605719 12.17217927 -4.22771042 3941 196 0 0.56500000 0.56500000 0.56500000
C 27.61387918 12.05269902 -3.01587035 3942 196 0 0.56500000 0.56500000 0.56500000
C 27.45775273 13.35213466 -2.20830471 3943 196 0 0.56500000 0.56500000 0.56500000
C 26.43592504 13.22690104 -1.07068382 3944 196 0 0.56500000 0.56500000 0.56500000
C 26.29753882 14.43888954 -0.16765732 3945 196 0 0.56500000 0.56500000 0.56500000
H 29.36582943 10.12028484 -6.82519939 3946 196 0 1.00000000 1.00000000 1.00000000
H 30.13303282 11.61570262 -6.34806627 3947 196 0 1.00000000 1.00000000 1.00000000
H 28.55339413 11.66722163 -6.91421244 3948 196 0 1.00000000 1.00000000 1.00000000
H 28.79223699 10.05609503 -4.36798250 3949 196 0 1.00000000 1.00000000 1.00000000
H 27.46710128 10.57035893 -5.24246957 3950 196 0 1.00000000 1.00000000 1.00000000
H 28.03467738 12.82525454 -4.96226263 3951 196 0 1.00000000 1.00000000 1.00000000
H 29.50507633 12.51742801 -4.00852231 3952 196 0 1.00000000 1.00000000 1.00000000
H 27.98944707 11.25536300 -2.40065842 3953 196 0 1.00000000 1.00000000 1.00000000
H 26.65945817 11.67773564 -3.33998857 3954 196 0 1.00000000 1.00000000 1.00000000
H 27.22568991 14.12762429 -2.94921673 3955 196 0 1.00000000 1.00000000 1.00000000
H 28.35115306 13.79153060 -1.77386162 3956 196 0 1.00000000 1.00000000 1.00000000
H 26.79623472 12.41812915 -0.40409682 3957 196 0 1.00000000 1.00000000 1.00000000
H 25.45251070 12.96828017 -1.48016701 3958 196 0 1.00000000 1.00000000 1.00000000
H 25.52643627 14.21082179 0.64161088 3959 196 0 1.00000000 1.00000000 1.00000000
H 25.89879028 15.32872105 -0.71256681 3960 196 0 1.00000000 1.00000000 1.00000000
H 27.27625369 14.74475294 0.15916285 3961 196 0 1.00000000 1.00000000 1.00000000
C -0.76938306 28.41631486 15.23328023 3962 197 0 0.56500000 0.56500000 0.56500000
C 0.08307470 27.72839647 14.21130741 3963 197 0 0.56500000 0.56500000 0.56500000
C 1.27744050 28.52619025 13.59700356 3964 197 0 0.56500000 0.56500000 0.56500000
C 1.95923699 27.65494687 12.49947254 3965 197 0 0.56500000 0.56500000 0.56500000
C 3.19452360 28.16959545 11.89817504 3966 197 0 0.56500000 0.56500000 0.56500000
C 3.01592527 29.19970140 10.73905615 3967 197 0 0.56500000 0.56500000 0.56500000
C 2.25429583 30.45795599 11.10928915 3968 197 0 0.56500000 0.56500000 0.56500000
H -1.44511687 27.74712492 15.75164731 3969 197 0 1.00000000 1.00000000 1.00000000
H -1.49883451 29.23780352 14.84210357 3970 197 0 1.00000000 1.00000000 1.00000000
H -0.19649749 29.00029472 16.00434479 3971 197 0 1.00000000 1.00000000 1.00000000
H -0.53645865 27.39588324 13.41949498 3972 197 0 1.00000000 1.00000000 1.00000000
H 0.51191504 26.82907691 14.65610792 3973 197 0 1.00000000 1.00000000 1.00000000
H 2.01827208 28.81465137 14.34560319 3974 197 0 1.00000000 1.00000000 1.00000000
H 0.76786239 29.37144800 13.15410321 3975 197 0 1.00000000 1.00000000 1.00000000
H 1.25971764 27.55269005 11.64887318 3976 197 0 1.00000000 1.00000000 1.00000000
H 2.13563511 26.67390654 12.89240395 3977 197 0 1.00000000 1.00000000 1.00000000
H 3.84382670 27.46417157 11.42518398 3978 197 0 1.00000000 1.00000000 1.00000000
H 3.87471443 28.69283529 12.62077794 3979 197 0 1.00000000 1.00000000 1.00000000
H 2.66132312 28.82132284 9.78510354 3980 197 0 1.00000000 1.00000000 1.00000000
H 3.99467837 29.39757215 10.46222137 3981 197 0 1.00000000 1.00000000 1.00000000
H 2.24080913 31.08253903 10.20869805 3982 197 0 1.00000000 1.00000000 1.00000000
H 2.68605683 31.05196840 11.94903872 3983 197 0 1.00000000 1.00000000 1.00000000
H 1.22067979 30.28787123 11.27858638 3984 197 0 1.00000000 1.00000000 1.00000000
C -1.78382644 44.75139424 0.79213706 3985 198 0 0.56500000 0.56500000 0.56500000
C -1.05667397 43.93264422 1.90784233 3986 198 0 0.56500000 0.56500000 0.56500000
C -0.41532014 44.77120855 3.07732139 3987 198 0 0.56500000 0.56500000 0.56500000
C 0.17145969 43.78743999 4.03149113 3988 198 0 0.56500000 0.56500000 0.56500000
C 0.72888408 44.31938572 5.34744540 3989 198 0 0.56500000 0.56500000 0.56500000
C 1.91396256 45.17045117 5.11930935 3990 198 0 0.56500000 0.56500000 0.56500000
C 2.56958993 45.67788932 6.41950399 3991 198 0 0.56500000 0.56500000 0.56500000
H -2.49818635 44.03184524 0.32546598 3992 198 0 1.00000000 1.00000000 1.00000000
H -1.21613349 45.26713531 0.06741014 3993 198 0 1.00000000 1.00000000 1.00000000
H -2.43600083 45.42961141 1.27005971 3994 198 0 1.00000000 1.00000000 1.00000000
H -0.26129802 43.38475906 1.43469629 3995 198 0 1.00000000 1.00000000 1.00000000
H -1.69343256 43.23640523 2.44045730 3996 198 0 1.00000000 1.00000000 1.00000000
H -1.08714143 45.36235348 3.46955639 3997 198 0 1.00000000 1.00000000 1.00000000
H 0.28098082 45.50899332 2.59314904 3998 198 0 1.00000000 1.00000000 1.00000000
H 0.96747080 43.16201328 3.53800438 3999 198 0 1.00000000 1.00000000 1.00000000
H -0.65075194 43.05050323 4.26281787 4000 198 0 1.00000000 1.00000000 1.00000000
H 0.95048395 43.45034933 5.95247004 4001 198 0 1.00000000 1.00000000 1.00000000
H -0.01089383 44.84634255 5.93936312 4002 198 0 1.00000000 1.00000000 1.00000000
H 1.50240856 45.95966596 4.56311378 4003 198 0 1.00000000 1.00000000 1.00000000
H 2.66862105 44.62772972 4.51826875 4004 198 0 1.00000000 1.00000000 1.00000000
H 3.39960383 46.30588825 6.36200454 4005 198 0 1.00000000 1.00000000 1.00000000
H 3.01092395 44.79995505 6.94271411 4006 198 0 1.00000000 1.00000000 1.00000000
H 1.85705749 46.14974353 7.09527872 4007 198 0 1.00000000 1.00000000 1.00000000
C 28.40359116 38.27619131 -8.76266687 4008 199 0 0.56500000 0.56500000 0.56500000
C 28.21891790 37.56909228 -7.41102389 4009 199 0 0.56500000 0.56500000 0.56500000
C 28.53461609 38.35291381 -6.14504143 4010 199 0 0.56500000 0.56500000 0.56500000
C 29.96165385 38.53269936 -5.83596674 4011 199 0 0.56500000 0.56500000 0.56500000
C 30.31106137 39.31393093 -4.50810389 4012 199 0 0.56500000 0.56500000 0.56500000
C 31.73511099 39.46997014 -4.13632530 4013 199 0 0.56500000 0.56500000 0.56500000
C 32.03234089 40.13971341 -2.79056965 4014 199 0 0.56500000 0.56500000 0.56500000
H 27.59963881 39.00683174 -8.95931130 4015 199 0 1.00000000 1.00000000 1.00000000
H 28.36361840 37.56244564 -9.57618360 4016 199 0 1.00000000 1.00000000 1.00000000
H 29.29365365 38.83029090 -8.89139580 4017 199 0 1.00000000 1.00000000 1.00000000
H 28.75211590 36.59777614 -7.49634409 4018 199 0 1.00000000 1.00000000 1.00000000
H 27.24014621 37.21651273 -7.20444135 4019 199 0 1.00000000 1.00000000 1.00000000
H 27.89667651 37.86206565 -5.32770499 4020 199 0 1.00000000 1.00000000 1.00000000
H 28.05278122 39.31727407 -6.33980336 4021 199 0 1.00000000 1.00000000 1.00000000
H 30.36458252 38.98602033 -6.71892151 4022 199 0 1.00000000 1.00000000 1.00000000
H 30.47585491 37.53724927 -5.75945198 4023 199 0 1.00000000 1.00000000 1.00000000
H 29.79719113 38.83214893 -3.67731081 4024 199 0 1.00000000 1.00000000 1.00000000
H 29.81574264 40.30746212 -4.64435329 4025 199 0 1.00000000 1.00000000 1.00000000
H 32.39183264 39.94970628 -4.87414145 4026 199 0 1.00000000 1.00000000 1.00000000
H 32.14328858 38.52469604 -4.04474077 4027 199 0 1.00000000 1.00000000 1.00000000
H 33.10394662 40.02975367 -2.56296194 4028 199 0 1.00000000 1.00000000 1.00000000
H 31.47869331 39.75195317 -1.96505208 4029 199 0 1.00000000 1.00000000 1.00000000
H 31.72210378 41.18961826 -2.87212416 4030 199 0 1.00000000 1.00000000 1.00000000
C 8.10661237 24.18143911 18.65900056 4031 200 0 0.56500000 0.56500000 0.56500000
C 8.33765069 25.48606111 19.35638045 4032 200 0 0.56500000 0.56500000 0.56500000
C 8.27867018 26.63548965 18.46572675 4033 200 0 0.56500000 0.56500000 0.56500000
C 9.54484805 26.91063576 17.64201540 4034 200 0 0.56500000 0.56500000 0.56500000
C 9.66389100 28.32347654 17.19462049 4035 200 0 0.56500000 0.56500000 0.56500000
C 10.98705337 28.72043746 16.60080606 4036 200 0 0.56500000 0.56500000 0.56500000
C 12.15301681 28.60597220 17.61290142 4037 200 0 0.56500000 0.56500000 0.56500000
H 8.46043903 24.16037724 17.55523121 4038 200 0 1.00000000 1.00000000 1.00000000
H 7.08670867 23.94064876 18.76959842 4039 200 0 1.00000000 1.00000000 1.00000000
H 8.65236288 23.39891498 19.19994306 4040 200 0 1.00000000 1.00000000 1.00000000
H 9.33131346 25.49244675 19.86402761 4041 200 0 1.00000000 1.00000000 1.00000000
H 7.52940631 25.54404459 20.11494676 4042 200 0 1.00000000 1.00000000 1.00000000
H 8.14997598 27.53986546 19.11799772 4043 200 0 1.00000000 1.00000000 1.00000000
H 7.48816201 26.43470419 17.74819701 4044 200 0 1.00000000 1.00000000 1.00000000
H 9.73283817 26.08510918 16.81374971 4045 200 0 1.00000000 1.00000000 1.00000000
H 10.43444549 26.66353890 18.25294378 4046 200 0 1.00000000 1.00000000 1.00000000
H 9.68081125 28.85896285 18.18222850 4047 200 0 1.00000000 1.00000000 1.00000000
H 8.89102258 28.73579575 16.63390935 4048 200 0 1.00000000 1.00000000 1.00000000
H 10.90327335 29.81129840 16.29392466 4049 200 0 1.00000000 1.00000000 1.00000000
H 11.41544521 28.24116029 15.61936803 4050 200 0 1.00000000 1.00000000 1.00000000
H 12.33598297 27.61702667 17.81800583 4051 200 0 1.00000000 1.00000000 1.00000000
H 11.98857076 29.17961370 18.51499855 4052 200 0 1.00000000 1.00000000 1.00000000
H 12.96275240 29.29582063 17.24903510 4053 200 0 1.00000000 1.00000000 1.00000000
C 8.91226306 42.42146354 19.43398519 4054 201 0 0.56500000 0.56500000 0.56500000
C 9.65580369 41.23812370 20.17037773 4055 201 0 0.56500000 0.56500000 0.56500000
C 9.35470807 41.30594646 21.67744048 4056 201 0 0.56500000 0.56500000 0.56500000
C 7.96992927 40.74450984 21.94409063 4057 201 0 0.56500000 0.56500000 0.56500000
C 7.53125262 40.79477682 23.36650623 4058 201 0 0.56500000 0.56500000 0.56500000
C 6.26712046 39.93649017 23.75429758 4059 201 0 0.56500000 0.56500000 0.56500000
C 5.81489365 40.07966843 25.14809872 4060 201 0 0.56500000 0.56500000 0.56500000
H 9.33564235 42.52916479 18.39034434 4061 201 0 1.00000000 1.00000000 1.00000000
H 9.09471849 43.33649027 19.97535340 4062 201 0 1.00000000 1.00000000 1.00000000
H 7.87286009 42.25419448 19.39458570 4063 201 0 1.00000000 1.00000000 1.00000000
H 10.74379984 41.35693015 20.03745331 4064 201 0 1.00000000 1.00000000 1.00000000
H 9.39806491 40.30742987 19.68968000 4065 201 0 1.00000000 1.00000000 1.00000000
H 9.36542631 42.31536293 22.05189547 4066 201 0 1.00000000 1.00000000 1.00000000
H 10.13546155 40.76874936 22.22261016 4067 201 0 1.00000000 1.00000000 1.00000000
H 7.77438639 39.74973694 21.52397449 4068 201 0 1.00000000 1.00000000 1.00000000
H 7.21391465 41.19880609 21.36748659 4069 201 0 1.00000000 1.00000000 1.00000000
H 7.35818793 41.82911219 23.59644695 4070 201 0 1.00000000 1.00000000 1.00000000
H 8.39990899 40.59575895 24.07673680 4071 201 0 1.00000000 1.00000000 1.00000000
H 6.58055943 38.94400456 23.62785336 4072 201 0 1.00000000 1.00000000 1.00000000
H 5.50566142 40.11948282 23.00062363 4073 201 0 1.00000000 1.00000000 1.00000000
H 4.94655518 39.41245466 25.44805382 4074 201 0 1.00000000 1.00000000 1.00000000
H 5.42277433 41.05106811 25.40860924 4075 201 0 1.00000000 1.00000000 1.00000000
H 6.65601073 39.73281736 25.79688281 4076 201 0 1.00000000 1.00000000 1.00000000
C 8.13427831 20.94587603 -0.21507727 4077 202 0 0.56500000 0.56500000 0.56500000
C 6.86427048 21.78869117 -0.00397829 4078 202 0 0.56500000 0.56500000 0.56500000
C 6.99925496 23.30425482 -0.02052829 4079 202 0 0.56500000 0.56500000 0.56500000
C 5.72535573 24.03001247 0.50111573 4080 202 0 0.56500000 0.56500000 0.56500000
C 4.48952591 24.05807552 -0.40256282 4081 202 0 0.56500000 0.56500000 0.56500000
C 4.66291156 25.23077399 -1.40842550 4082 202 0 0.56500000 0.56500000 0.56500000
C 4.50436093 26.65526834 -0.84745911 4083 202 0 0.56500000 0.56500000 0.56500000
H 8.02269389 19.97268379 0.23413542 4084 202 0 1.00000000 1.00000000 1.00000000
H 9.06726083 21.38284367 0.21669936 4085 202 0 1.00000000 1.00000000 1.00000000
H 8.25321945 20.91391132 -1.33609474 4086 202 0 1.00000000 1.00000000 1.00000000
H 6.48259950 21.60500558 1.00899245 4087 202 0 1.00000000 1.00000000 1.00000000
H 5.99069301 21.52073853 -0.68982593 4088 202 0 1.00000000 1.00000000 1.00000000
H 7.33531269 23.70509016 -1.05002934 4089 202 0 1.00000000 1.00000000 1.00000000
H 7.80684129 23.62556800 0.69998905 4090 202 0 1.00000000 1.00000000 1.00000000
H 5.78453461 25.04391739 0.78288886 4091 202 0 1.00000000 1.00000000 1.00000000
H 5.42506562 23.60561393 1.52941153 4092 202 0 1.00000000 1.00000000 1.00000000
H 3.59037357 24.15300550 0.21917669 4093 202 0 1.00000000 1.00000000 1.00000000
H 4.53892974 23.19787708 -1.06172644 4094 202 0 1.00000000 1.00000000 1.00000000
H 3.83557751 25.04249011 -2.11740674 4095 202 0 1.00000000 1.00000000 1.00000000
H 5.62590910 25.11090878 -1.86494470 4096 202 0 1.00000000 1.00000000 1.00000000
H 5.31919817 27.06655416 -0.28044853 4097 202 0 1.00000000 1.00000000 1.00000000
H 3.64648882 26.71562310 -0.10579222 4098 202 0 1.00000000 1.00000000 1.00000000
H 4.25531754 27.27664105 -1.70756169 4099 202 0 1.00000000 1.00000000 1.00000000
C 5.30181755 32.12344061 3.60937300 4100 203 0 0.56500000 0.56500000 0.56500000
C 5.55991680 33.27279808 4.55850136 4101 203 0 0.56500000 0.56500000 0.56500000
C 4.62722308 34.46695101 4.40912161 4102 203 0 0.56500000 0.56500000 0.56500000
C 4.99954213 35.31352540 3.17607171 4103 203 0 0.56500000 0.56500000 0.56500000
C 4.07312549 36.49822412 2.86011351 4104 203 0 0.56500000 0.56500000 0.56500000
C 4.32047313 37.35611610 1.63320522 4105 203 0 0.56500000 0.56500000 0.56500000
C 4.09501485 36.59136700 0.31959695 4106 203 0 0.56500000 0.56500000 0.56500000
H 5.94108158 31.27502753 3.83478158 4107 203 0 1.00000000 1.00000000 1.00000000
H 5.60472591 32.41996132 2.51653850 4108 203 0 1.00000000 1.00000000 1.00000000
H 4.21474122 31.85165892 3.59169459 4109 203 0 1.00000000 1.00000000 1.00000000
H 6.59698808 33.49652122 4.45962700 4110 203 0 1.00000000 1.00000000 1.00000000
H 5.57899985 32.84725816 5.55754671 4111 203 0 1.00000000 1.00000000 1.00000000
H 4.73116965 35.14872243 5.30623318 4112 203 0 1.00000000 1.00000000 1.00000000
H 3.60424700 34.14880462 4.35415786 4113 203 0 1.00000000 1.00000000 1.00000000
H 5.05343474 34.64693997 2.27937667 4114 203 0 1.00000000 1.00000000 1.00000000
H 6.00457640 35.68106585 3.36803239 4115 203 0 1.00000000 1.00000000 1.00000000
H 4.06739806 37.17987584 3.69492980 4116 203 0 1.00000000 1.00000000 1.00000000
H 3.04239290 36.07383641 2.89026471 4117 203 0 1.00000000 1.00000000 1.00000000
H 5.32519067 37.77691415 1.58653622 4118 203 0 1.00000000 1.00000000 1.00000000
H 3.62832279 38.17416486 1.70066001 4119 203 0 1.00000000 1.00000000 1.00000000
H 4.93831652 35.94915679 0.00830039 4120 203 0 1.00000000 1.00000000 1.00000000
H 3.87020334 37.24149111 -0.50830799 4121 203 0 1.00000000 1.00000000 1.00000000
H 3.21349488 35.90962862 0.47276033 4122 203 0 1.00000000 1.00000000 1.00000000
C 11.09358174 21.64590105 17.53372854 4123 204 0 0.56500000 0.56500000 0.56500000
C 11.72494842 23.00015258 16.97424234 4124 204 0 0.56500000 0.56500000 0.56500000
C 13.23624010 23.12019477 17.32657688 4125 204 0 0.56500000 0.56500000 0.56500000
C 13.89434180 24.42335325 16.90405294 4126 204 0 0.56500000 0.56500000 0.56500000
C 15.38861956 24.37218766 17.41710857 4127 204 0 0.56500000 0.56500000 0.56500000
C 16.07479988 25.68691186 17.81638399 4128 204 0 0.56500000 0.56500000 0.56500000
C 15.28777567 26.56678702 18.75742530 4129 204 0 0.56500000 0.56500000 0.56500000
H 9.99272571 21.60167190 17.53499756 4130 204 0 1.00000000 1.00000000 1.00000000
H 11.47733696 21.35767144 18.51812312 4131 204 0 1.00000000 1.00000000 1.00000000
H 11.47363666 20.91021670 16.83269279 4132 204 0 1.00000000 1.00000000 1.00000000
H 11.12718850 23.81794547 17.28018066 4133 204 0 1.00000000 1.00000000 1.00000000
H 11.59453534 22.97458923 15.85721829 4134 204 0 1.00000000 1.00000000 1.00000000
H 13.81377051 22.25494801 16.91468606 4135 204 0 1.00000000 1.00000000 1.00000000
H 13.27530354 23.02088744 18.39430738 4136 204 0 1.00000000 1.00000000 1.00000000
H 13.27799016 25.24663009 17.48082673 4137 204 0 1.00000000 1.00000000 1.00000000
H 13.85637954 24.67403890 15.80841881 4138 204 0 1.00000000 1.00000000 1.00000000
H 16.08423433 24.00319880 16.59826432 4139 204 0 1.00000000 1.00000000 1.00000000
H 15.43068056 23.73057064 18.27825276 4140 204 0 1.00000000 1.00000000 1.00000000
H 16.27946772 26.29621242 16.90060502 4141 204 0 1.00000000 1.00000000 1.00000000
H 17.09966244 25.34743203 18.19464654 4142 204 0 1.00000000 1.00000000 1.00000000
H 14.51694966 27.06093945 18.24658419 4143 204 0 1.00000000 1.00000000 1.00000000
H 15.90103883 27.39301607 19.17738308 4144 204 0 1.00000000 1.00000000 1.00000000
H 14.89432047 26.03987606 19.61662631 4145 204 0 1.00000000 1.00000000 1.00000000
C 23.74132266 9.75453297 29.32416167 4146 205 0 0.56500000 0.56500000 0.56500000
C 23.41373275 9.36951071 30.77269201 4147 205 0 0.56500000 0.56500000 0.56500000
C 22.21313263 10.22848093 31.28015830 4148 205 0 0.56500000 0.56500000 0.56500000
C 21.84884511 10.05358806 32.73174209 4149 205 0 0.56500000 0.56500000 0.56500000
C 21.02696675 11.23162994 33.31042641 4150 205 0 0.56500000 0.56500000 0.56500000
C 21.79148757 12.61693404 33.46230524 4151 205 0 0.56500000 0.56500000 0.56500000
C 20.78016984 13.53794797 34.12435822 4152 205 0 0.56500000 0.56500000 0.56500000
H 24.75021465 9.45231944 28.98527127 4153 205 0 1.00000000 1.00000000 1.00000000
H 23.66601280 10.85510717 29.24946211 4154 205 0 1.00000000 1.00000000 1.00000000
H 22.95311684 9.33931695 28.67445301 4155 205 0 1.00000000 1.00000000 1.00000000
H 24.30252763 9.50813178 31.39396684 4156 205 0 1.00000000 1.00000000 1.00000000
H 23.24867139 8.26613200 30.81556645 4157 205 0 1.00000000 1.00000000 1.00000000
H 21.37552294 10.01698837 30.59399303 4158 205 0 1.00000000 1.00000000 1.00000000
H 22.52220541 11.22656480 31.15504177 4159 205 0 1.00000000 1.00000000 1.00000000
H 22.72162507 10.11052217 33.38489442 4160 205 0 1.00000000 1.00000000 1.00000000
H 21.29095576 9.11948946 32.87158720 4161 205 0 1.00000000 1.00000000 1.00000000
H 20.69693225 11.02636544 34.31525957 4162 205 0 1.00000000 1.00000000 1.00000000
H 20.08074876 11.40963401 32.82780249 4163 205 0 1.00000000 1.00000000 1.00000000
H 22.05749576 12.94595634 32.51864005 4164 205 0 1.00000000 1.00000000 1.00000000
H 22.73022093 12.52783488 33.96158897 4165 205 0 1.00000000 1.00000000 1.00000000
H 20.93756079 14.58579586 33.95676179 4166 205 0 1.00000000 1.00000000 1.00000000
H 20.66603746 13.40797288 35.25558367 4167 205 0 1.00000000 1.00000000 1.00000000
H 19.80599575 13.42090988 33.63290355 4168 205 0 1.00000000 1.00000000 1.00000000
C 17.09792864 11.60578217 0.71006453 4169 206 0 0.56500000 0.56500000 0.56500000
C 17.71988990 10.38802719 -0.07076742 4170 206 0 0.56500000 0.56500000 0.56500000
C 17.83733453 10.60545321 -1.54732613 4171 206 0 0.56500000 0.56500000 0.56500000
C 18.94547590 11.66048698 -1.76532266 4172 206 0 0.56500000 0.56500000 0.56500000
C 19.34660227 11.75228606 -3.26772428 4173 206 0 0.56500000 0.56500000 0.56500000
C 18.37895818 12.50121011 -4.21868258 4174 206 0 0.56500000 0.56500000 0.56500000
C 19.07015638 13.79263753 -4.64148281 4175 206 0 0.56500000 0.56500000 0.56500000
H 17.70424494 12.49452400 0.70208055 4176 206 0 1.00000000 1.00000000 1.00000000
H 16.92690106 11.21583648 1.77654356 4177 206 0 1.00000000 1.00000000 1.00000000
H 16.06801964 11.87075464 0.26443629 4178 206 0 1.00000000 1.00000000 1.00000000
H 17.05967823 9.47484858 0.12135577 4179 206 0 1.00000000 1.00000000 1.00000000
H 18.62286554 10.10342864 0.40837820 4180 206 0 1.00000000 1.00000000 1.00000000
H 16.92166646 10.96330154 -1.94689949 4181 206 0 1.00000000 1.00000000 1.00000000
H 18.16031664 9.62280817 -2.02115709 4182 206 0 1.00000000 1.00000000 1.00000000
H 19.83408268 11.36349486 -1.26195764 4183 206 0 1.00000000 1.00000000 1.00000000
H 18.53137827 12.60264995 -1.35759923 4184 206 0 1.00000000 1.00000000 1.00000000
H 19.42121847 10.74314802 -3.59435425 4185 206 0 1.00000000 1.00000000 1.00000000
H 20.33261507 12.18814696 -3.28483042 4186 206 0 1.00000000 1.00000000 1.00000000
H 17.39436647 12.68856414 -3.67923473 4187 206 0 1.00000000 1.00000000 1.00000000
H 18.26672442 11.83235600 -5.03934340 4188 206 0 1.00000000 1.00000000 1.00000000
H 19.30811321 14.36879007 -3.79078902 4189 206 0 1.00000000 1.00000000 1.00000000
H 18.28824573 14.51489488 -5.07074106 4190 206 0 1.00000000 1.00000000 1.00000000
H 19.85168276 13.83446733 -5.41797049 4191 206 0 1.00000000 1.00000000 1.00000000
C 16.82077497 34.29423823 -3.50472500 4192 207 0 0.56500000 0.56500000 0.56500000
C 16.22637741 32.94742729 -3.27536664 4193 207 0 0.56500000 0.56500000 0.56500000
C 14.66850616 32.96640865 -3.19778211 4194 207 0 0.56500000 0.56500000 0.56500000
C 14.07564547 31.59506856 -3.29124230 4195 207 0 0.56500000 0.56500000 0.56500000
C 12.52027747 31.58985485 -3.06859403 4196 207 0 0.56500000 0.56500000 0.56500000
C 12.04523123 30.21791003 -2.59288751 4197 207 0 0.56500000 0.56500000 0.56500000
C 12.24583031 29.10392425 -3.58881455 4198 207 0 0.56500000 0.56500000 0.56500000
H 16.46882476 35.11604799 -2.81122187 4199 207 0 1.00000000 1.00000000 1.00000000
H 16.49598619 34.63370295 -4.50922746 4200 207 0 1.00000000 1.00000000 1.00000000
H 17.94883276 34.23700838 -3.47571984 4201 207 0 1.00000000 1.00000000 1.00000000
H 16.46246515 32.41325941 -2.39901737 4202 207 0 1.00000000 1.00000000 1.00000000
H 16.58602807 32.32750775 -4.07980527 4203 207 0 1.00000000 1.00000000 1.00000000
H 14.34133797 33.71429796 -3.95750392 4204 207 0 1.00000000 1.00000000 1.00000000
H 14.35432169 33.43119001 -2.24119144 4205 207 0 1.00000000 1.00000000 1.00000000
H 14.52578476 30.98266471 -2.49726572 4206 207 0 1.00000000 1.00000000 1.00000000
H 14.43582611 31.09280961 -4.19312907 4207 207 0 1.00000000 1.00000000 1.00000000
H 11.90586071 31.72156223 -3.98775503 4208 207 0 1.00000000 1.00000000 1.00000000
H 12.20711327 32.38151293 -2.37423418 4209 207 0 1.00000000 1.00000000 1.00000000
H 10.95824570 30.33223993 -2.41559241 4210 207 0 1.00000000 1.00000000 1.00000000
H 12.43195396 30.01892445 -1.61933809 4211 207 0 1.00000000 1.00000000 1.00000000
H 11.99016089 29.42979060 -4.59157852 4212 207 0 1.00000000 1.00000000 1.00000000
H 11.51535605 28.30918751 -3.37322477 4213 207 0 1.00000000 1.00000000 1.00000000
H 13.23086857 28.66804953 -3.72602237 4214 207 0 1.00000000 1.00000000 1.00000000
C 8.03530169 11.27178107 37.45416639 4215 208 0 0.56500000 0.56500000 0.56500000
C 8.69646202 9.90093660 37.70852219 4216 208 0 0.56500000 0.56500000 0.56500000
C 7.70322215 8.88776640 38.29916140 4217 208 0 0.56500000 0.56500000 0.56500000
C 7.52659213 9.11805081 39.81355752 4218 208 0 0.56500000 0.56500000 0.56500000
C 6.79861073 7.89894866 40.42204842 4219 208 0 0.56500000 0.56500000 0.56500000
C 6.37472284 8.04107737 41.89956573 4220 208 0 0.56500000 0.56500000 0.56500000
C 7.56959339 8.25835151 42.78817230 4221 208 0 0.56500000 0.56500000 0.56500000
H 7.59617158 11.75073233 38.36087207 4222 208 0 1.00000000 1.00000000 1.00000000
H 7.19509288 11.09512540 36.83699404 4223 208 0 1.00000000 1.00000000 1.00000000
H 8.77589475 11.94761618 37.03903818 4224 208 0 1.00000000 1.00000000 1.00000000
H 9.50753849 9.86288701 38.38185651 4225 208 0 1.00000000 1.00000000 1.00000000
H 9.11754434 9.50120912 36.74864188 4226 208 0 1.00000000 1.00000000 1.00000000
H 8.17065604 7.83937510 38.14530448 4227 208 0 1.00000000 1.00000000 1.00000000
H 6.75073415 8.93811912 37.78174221 4228 208 0 1.00000000 1.00000000 1.00000000
H 6.95066191 10.10677238 39.99513803 4229 208 0 1.00000000 1.00000000 1.00000000
H 8.60446348 9.17175231 40.27954393 4230 208 0 1.00000000 1.00000000 1.00000000
H 7.52356543 7.08283876 40.22059170 4231 208 0 1.00000000 1.00000000 1.00000000
H 5.90191089 7.71511758 39.80668230 4232 208 0 1.00000000 1.00000000 1.00000000
H 5.74908995 7.18094129 42.25145546 4233 208 0 1.00000000 1.00000000 1.00000000
H 5.73371283 8.86234399 41.79436255 4234 208 0 1.00000000 1.00000000 1.00000000
H 7.99503762 9.20416487 42.52475911 4235 208 0 1.00000000 1.00000000 1.00000000
H 8.26372401 7.37752718 42.62929823 4236 208 0 1.00000000 1.00000000 1.00000000
H 7.27734985 8.34853029 43.84668004 4237 208 0 1.00000000 1.00000000 1.00000000
C 15.68165694 14.52842575 35.68583366 4238 209 0 0.56500000 0.56500000 0.56500000
C 16.31599228 14.24318526 37.03745915 4239 209 0 0.56500000 0.56500000 0.56500000
C 17.81155294 14.73407583 36.93620227 4240 209 0 0.56500000 0.56500000 0.56500000
C 18.14769131 16.19352841 36.96027858 4241 209 0 0.56500000 0.56500000 0.56500000
C 19.58154332 16.51817960 37.25262548 4242 209 0 0.56500000 0.56500000 0.56500000
C 20.62692827 16.45390297 36.12947103 4243 209 0 0.56500000 0.56500000 0.56500000
C 22.01942802 16.80995416 36.64994224 4244 209 0 0.56500000 0.56500000 0.56500000
H 16.14806196 13.79427139 35.00263772 4245 209 0 1.00000000 1.00000000 1.00000000
H 16.09562311 15.46910496 35.30797008 4246 209 0 1.00000000 1.00000000 1.00000000
H 14.57273914 14.50689981 35.51550741 4247 209 0 1.00000000 1.00000000 1.00000000
H 16.28732313 13.16367638 37.31763055 4248 209 0 1.00000000 1.00000000 1.00000000
H 15.95197029 14.86898772 37.80402843 4249 209 0 1.00000000 1.00000000 1.00000000
H 18.22876963 14.31041919 36.05215722 4250 209 0 1.00000000 1.00000000 1.00000000
H 18.43774161 14.23532955 37.72316413 4251 209 0 1.00000000 1.00000000 1.00000000
H 17.46196528 16.58584440 37.75491791 4252 209 0 1.00000000 1.00000000 1.00000000
H 17.73964055 16.63778410 36.00918225 4253 209 0 1.00000000 1.00000000 1.00000000
H 19.90316896 15.85212981 38.10074670 4254 209 0 1.00000000 1.00000000 1.00000000
H 19.62279646 17.48327139 37.76536607 4255 209 0 1.00000000 1.00000000 1.00000000
H 20.29161318 17.15834052 35.39719957 4256 209 0 1.00000000 1.00000000 1.00000000
H 20.61439200 15.41438524 35.78361916 4257 209 0 1.00000000 1.00000000 1.00000000
H 22.28099402 16.04548007 37.39730393 4258 209 0 1.00000000 1.00000000 1.00000000
H 21.93776526 17.72988597 37.13072859 4259 209 0 1.00000000 1.00000000 1.00000000
H 22.82121046 16.80633428 35.83521253 4260 209 0 1.00000000 1.00000000 1.00000000
C 13.03874095 8.52246586 13.24532663 4261 210 0 0.56500000 0.56500000 0.56500000
C 14.56217685 8.65796919 13.28228364 4262 210 0 0.56500000 0.56500000 0.56500000
C 15.35050029 8.95123792 11.93320956 4263 210 0 0.56500000 0.56500000 0.56500000
C 14.55303200 9.90575887 11.07811609 4264 210 0 0.56500000 0.56500000 0.56500000
C 14.44101905 11.34143035 11.70182896 4265 210 0 0.56500000 0.56500000 0.56500000
C 13.42023130 12.17570066 10.84356821 4266 210 0 0.56500000 0.56500000 0.56500000
C 13.17926173 13.60130978 11.26029384 4267 210 0 0.56500000 0.56500000 0.56500000
H 12.51279126 9.41874426 12.98562289 4268 210 0 1.00000000 1.00000000 1.00000000
H 12.91242561 8.26174473 14.31172544 4269 210 0 1.00000000 1.00000000 1.00000000
H 12.77441536 7.73387813 12.49197030 4270 210 0 1.00000000 1.00000000 1.00000000
H 15.05879889 7.78185092 13.72742930 4271 210 0 1.00000000 1.00000000 1.00000000
H 14.69936633 9.53797376 13.86255363 4272 210 0 1.00000000 1.00000000 1.00000000
H 15.52195720 8.06406257 11.31620464 4273 210 0 1.00000000 1.00000000 1.00000000
H 16.25901144 9.51272928 12.16458873 4274 210 0 1.00000000 1.00000000 1.00000000
H 13.54123391 9.39563570 11.00866478 4275 210 0 1.00000000 1.00000000 1.00000000
H 14.93653556 9.94438597 10.07574419 4276 210 0 1.00000000 1.00000000 1.00000000
H 15.34926719 11.90168846 11.77208782 4277 210 0 1.00000000 1.00000000 1.00000000
H 14.10271949 11.29636730 12.72093004 4278 210 0 1.00000000 1.00000000 1.00000000
H 12.48490673 11.57633504 10.83344930 4279 210 0 1.00000000 1.00000000 1.00000000
H 13.84642242 12.26240043 9.84927860 4280 210 0 1.00000000 1.00000000 1.00000000
H 12.45892721 13.64887898 12.08479950 4281 210 0 1.00000000 1.00000000 1.00000000
H 12.76972974 14.27536686 10.41105009 4282 210 0 1.00000000 1.00000000 1.00000000
H 14.05550445 14.04964145 11.68403333 4283 210 0 1.00000000 1.00000000 1.00000000
C 15.02705291 7.95436813 21.51541229 4284 211 0 0.56500000 0.56500000 0.56500000
C 15.00715120 9.43492231 21.74212176 4285 211 0 0.56500000 0.56500000 0.56500000
C 14.94267559 9.67593845 23.29821804 4286 211 0 0.56500000 0.56500000 0.56500000
C 13.65571554 9.18012082 23.89486972 4287 211 0 0.56500000 0.56500000 0.56500000
C 13.73023629 9.07013000 25.43549815 4288 211 0 0.56500000 0.56500000 0.56500000
C 12.43704158 8.59936101 26.07377359 4289 211 0 0.56500000 0.56500000 0.56500000
C 12.30000957 8.66666123 27.61485045 4290 211 0 0.56500000 0.56500000 0.56500000
H 15.81859635 7.60220522 22.10893182 4291 211 0 1.00000000 1.00000000 1.00000000
H 15.24365767 7.75092018 20.53006670 4292 211 0 1.00000000 1.00000000 1.00000000
H 14.15875317 7.33991384 21.72122124 4293 211 0 1.00000000 1.00000000 1.00000000
H 14.10579567 9.87210014 21.30917664 4294 211 0 1.00000000 1.00000000 1.00000000
H 15.97850025 9.91991026 21.31545586 4295 211 0 1.00000000 1.00000000 1.00000000
H 15.12232998 10.73254886 23.55104295 4296 211 0 1.00000000 1.00000000 1.00000000
H 15.83386951 9.22344903 23.69376786 4297 211 0 1.00000000 1.00000000 1.00000000
H 13.40297454 8.18325138 23.49314209 4298 211 0 1.00000000 1.00000000 1.00000000
H 12.77524664 9.73361803 23.66839250 4299 211 0 1.00000000 1.00000000 1.00000000
H 14.00774250 10.11724433 25.84749456 4300 211 0 1.00000000 1.00000000 1.00000000
H 14.56268620 8.39935621 25.66947302 4301 211 0 1.00000000 1.00000000 1.00000000
H 12.29087323 7.57924981 25.76709801 4302 211 0 1.00000000 1.00000000 1.00000000
H 11.62963571 9.12133652 25.64266292 4303 211 0 1.00000000 1.00000000 1.00000000
H 13.07118568 8.00864400 28.07791813 4304 211 0 1.00000000 1.00000000 1.00000000
H 11.23410255 8.50946951 27.85032212 4305 211 0 1.00000000 1.00000000 1.00000000
H 12.50738824 9.70160788 27.90837874 4306 211 0 1.00000000 1.00000000 1.00000000
C 24.70341485 7.86636262 35.06125238 4307 212 0 0.56500000 0.56500000 0.56500000
C 25.60773415 9.06250860 34.49020845 4308 212 0 0.56500000 0.56500000 0.56500000
C 26.87249369 9.42045569 35.32764682 4309 212 0 0.56500000 0.56500000 0.56500000
C 27.97864463 10.19817762 34.59386007 4310 212 0 0.56500000 0.56500000 0.56500000
C 29.37793616 9.86340712 35.20150537 4311 212 0 0.56500000 0.56500000 0.56500000
C 30.46777221 10.81781015 34.66653032 4312 212 0 0.56500000 0.56500000 0.56500000
C 31.71294280 10.96213374 35.57446679 4313 212 0 0.56500000 0.56500000 0.56500000
H 23.82773895 7.65597273 34.32873494 4314 212 0 1.00000000 1.00000000 1.00000000
H 24.11639727 8.21365348 35.96097015 4315 212 0 1.00000000 1.00000000 1.00000000
H 25.20107398 6.93113635 35.27330839 4316 212 0 1.00000000 1.00000000 1.00000000
H 25.05915231 9.97644723 34.23422938 4317 212 0 1.00000000 1.00000000 1.00000000
H 25.90502529 8.64123959 33.53496341 4318 212 0 1.00000000 1.00000000 1.00000000
H 27.36261920 8.43460434 35.57818439 4319 212 0 1.00000000 1.00000000 1.00000000
H 26.71086296 10.03477096 36.26553396 4320 212 0 1.00000000 1.00000000 1.00000000
H 27.69401470 11.25631566 34.65511586 4321 212 0 1.00000000 1.00000000 1.00000000
H 28.04990746 10.00644336 33.45896420 4322 212 0 1.00000000 1.00000000 1.00000000
H 29.76821723 8.87162201 34.94933441 4323 212 0 1.00000000 1.00000000 1.00000000
H 29.30095650 10.01726723 36.27360436 4324 212 0 1.00000000 1.00000000 1.00000000
H 29.96160576 11.83261628 34.55373472 4325 212 0 1.00000000 1.00000000 1.00000000
H 30.57879315 10.40043189 33.67815420 4326 212 0 1.00000000 1.00000000 1.00000000
H 31.55581438 11.05347516 36.65420112 4327 212 0 1.00000000 1.00000000 1.00000000
H 32.55829889 11.55442683 35.13829647 4328 212 0 1.00000000 1.00000000 1.00000000
H 32.14224266 9.96932188 35.53767351 4329 212 0 1.00000000 1.00000000 1.00000000
C 33.25568262 15.86511223 -2.00024282 4330 213 0 0.56500000 0.56500000 0.56500000
C 32.02490910 16.71521903 -2.01107234 4331 213 0 0.56500000 0.56500000 0.56500000
C 30.70260181 15.89232900 -2.22466947 4332 213 0 0.56500000 0.56500000 0.56500000
C 29.43624743 16.75241722 -2.32368045 4333 213 0 0.56500000 0.56500000 0.56500000
C 29.12574990 17.44406915 -0.98942861 4334 213 0 0.56500000 0.56500000 0.56500000
C 28.02011564 18.49304152 -1.05475505 4335 213 0 0.56500000 0.56500000 0.56500000
C 28.09374733 19.38892945 0.21138299 4336 213 0 0.56500000 0.56500000 0.56500000
H 33.14027926 14.98000813 -1.35443641 4337 213 0 1.00000000 1.00000000 1.00000000
H 34.20895575 16.36888483 -1.62739684 4338 213 0 1.00000000 1.00000000 1.00000000
H 33.57710080 15.52469320 -2.95288731 4339 213 0 1.00000000 1.00000000 1.00000000
H 31.99191986 17.43529511 -2.83178527 4340 213 0 1.00000000 1.00000000 1.00000000
H 31.98435080 17.24863910 -1.03007748 4341 213 0 1.00000000 1.00000000 1.00000000
H 30.65908389 15.19256591 -1.40059490 4342 213 0 1.00000000 1.00000000 1.00000000
H 30.80480033 15.24461472 -3.11509618 4343 213 0 1.00000000 1.00000000 1.00000000
H 28.57002679 16.10920770 -2.58509927 4344 213 0 1.00000000 1.00000000 1.00000000
H 29.54999034 17.56191701 -3.09761530 4345 213 0 1.00000000 1.00000000 1.00000000
H 30.08103029 17.99473977 -0.62274925 4346 213 0 1.00000000 1.00000000 1.00000000
H 28.77673654 16.61481857 -0.30662889 4347 213 0 1.00000000 1.00000000 1.00000000
H 27.02331766 17.96781929 -1.04907379 4348 213 0 1.00000000 1.00000000 1.00000000
H 28.14258104 19.12401380 -1.95665415 4349 213 0 1.00000000 1.00000000 1.00000000
H 27.61149607 18.97675532 1.05776374 4350 213 0 1.00000000 1.00000000 1.00000000
H 27.64969872 20.36445248 0.06172934 4351 213 0 1.00000000 1.00000000 1.00000000
H 29.14388777 19.40508759 0.49378455 4352 213 0 1.00000000 1.00000000 1.00000000
C 33.91757042 8.29208484 31.06692205 4353 214 0 0.56500000 0.56500000 0.56500000
C 32.88444530 9.36366954 31.11972699 4354 214 0 0.56500000 0.56500000 0.56500000
C 31.52743802 8.88111684 30.64536194 4355 214 0 0.56500000 0.56500000 0.56500000
C 30.49650064 10.00708914 30.67468244 4356 214 0 0.56500000 0.56500000 0.56500000
C 29.07409074 9.47753969 30.55331349 4357 214 0 0.56500000 0.56500000 0.56500000
C 28.07027334 10.60683081 30.48649898 4358 214 0 0.56500000 0.56500000 0.56500000
C 27.70159486 11.07477943 29.07039667 4359 214 0 0.56500000 0.56500000 0.56500000
H 33.54708057 7.50211201 31.74164903 4360 214 0 1.00000000 1.00000000 1.00000000
H 34.89929421 8.57176291 31.33083259 4361 214 0 1.00000000 1.00000000 1.00000000
H 33.95808275 7.83263369 30.04199313 4362 214 0 1.00000000 1.00000000 1.00000000
H 33.33628860 10.27394569 30.55660397 4363 214 0 1.00000000 1.00000000 1.00000000
H 32.79395539 9.62619561 32.18492050 4364 214 0 1.00000000 1.00000000 1.00000000
H 31.28893089 8.08264237 31.41934759 4365 214 0 1.00000000 1.00000000 1.00000000
H 31.42102291 8.41309406 29.63724121 4366 214 0 1.00000000 1.00000000 1.00000000
H 30.73826691 10.71836785 29.90104888 4367 214 0 1.00000000 1.00000000 1.00000000
H 30.60201361 10.50861305 31.64717563 4368 214 0 1.00000000 1.00000000 1.00000000
H 28.94769034 8.95783364 31.49807180 4369 214 0 1.00000000 1.00000000 1.00000000
H 28.92529551 8.72987400 29.79896453 4370 214 0 1.00000000 1.00000000 1.00000000
H 28.50791131 11.50651065 31.07146375 4371 214 0 1.00000000 1.00000000 1.00000000
H 27.18287350 10.51558625 31.04853192 4372 214 0 1.00000000 1.00000000 1.00000000
H 27.04492707 10.43575213 28.48567280 4373 214 0 1.00000000 1.00000000 1.00000000
H 28.53349494 11.33913983 28.38598138 4374 214 0 1.00000000 1.00000000 1.00000000
H 27.15841566 11.99271175 29.24523995 4375 214 0 1.00000000 1.00000000 1.00000000
C 6.10654269 49.71738597 43.86767772 4376 215 0 0.56500000 0.56500000 0.56500000
C 5.64291201 48.58004505 43.02939217 4377 215 0 0.56500000 0.56500000 0.56500000
C 5.92008839 47.11609058 43.44028771 4378 215 0 0.56500000 0.56500000 0.56500000
C 5.36527746 46.17615573 42.30660083 4379 215 0 0.56500000 0.56500000 0.56500000
C 5.79347348 44.73579528 42.56803603 4380 215 0 0.56500000 0.56500000 0.56500000
C 5.15303881 44.05185667 43.79921404 4381 215 0 0.56500000 0.56500000 0.56500000
C 5.68853779 42.53584884 44.03054998 4382 215 0 0.56500000 0.56500000 0.56500000
H 7.16415880 50.00077424 43.76205779 4383 215 0 1.00000000 1.00000000 1.00000000
H 5.90620967 49.64540414 44.95122312 4384 215 0 1.00000000 1.00000000 1.00000000
H 5.58251256 50.58676988 43.49769532 4385 215 0 1.00000000 1.00000000 1.00000000
H 6.13590894 48.90354592 42.12139825 4386 215 0 1.00000000 1.00000000 1.00000000
H 4.51972289 48.68109372 42.99399122 4387 215 0 1.00000000 1.00000000 1.00000000
H 5.32693329 46.94296438 44.28779021 4388 215 0 1.00000000 1.00000000 1.00000000
H 6.95721493 46.92818212 43.46837814 4389 215 0 1.00000000 1.00000000 1.00000000
H 5.50173847 46.37503670 41.26148323 4390 215 0 1.00000000 1.00000000 1.00000000
H 4.21737284 46.18871232 42.44349202 4391 215 0 1.00000000 1.00000000 1.00000000
H 6.86907394 44.66509652 42.66598708 4392 215 0 1.00000000 1.00000000 1.00000000
H 5.64666338 44.05696572 41.72020405 4393 215 0 1.00000000 1.00000000 1.00000000
H 4.07566382 43.98324753 43.55345870 4394 215 0 1.00000000 1.00000000 1.00000000
H 5.30102461 44.65140477 44.70875691 4395 215 0 1.00000000 1.00000000 1.00000000
H 5.37660626 41.88499234 43.23162127 4396 215 0 1.00000000 1.00000000 1.00000000
H 5.35393401 42.29550353 45.00564440 4397 215 0 1.00000000 1.00000000 1.00000000
H 6.78001408 42.59589847 43.93963593 4398 215 0 1.00000000 1.00000000 1.00000000
C 5.05654807 22.43166910 20.84574805 4399 216 0 0.56500000 0.56500000 0.56500000
C 4.70132786 22.19103194 19.42240192 4400 216 0 0.56500000 0.56500000 0.56500000
C 3.28552296 22.26355422 19.01862020 4401 216 0 0.56500000 0.56500000 0.56500000
C 2.31173590 21.42949877 19.81866717 4402 216 0 0.56500000 0.56500000 0.56500000
C 0.88404132 21.32855836 19.29941509 4403 216 0 0.56500000 0.56500000 0.56500000
C -0.00358239 20.51829516 20.17574943 4404 216 0 0.56500000 0.56500000 0.56500000
C -1.45856874 20.51163060 19.71827137 4405 216 0 0.56500000 0.56500000 0.56500000
H 6.01279264 21.98715466 21.14702390 4406 216 0 1.00000000 1.00000000 1.00000000
H 4.31356787 21.89919707 21.51770522 4407 216 0 1.00000000 1.00000000 1.00000000
H 5.03999199 23.51369492 21.23999083 4408 216 0 1.00000000 1.00000000 1.00000000
H 5.24234102 21.22632070 19.08324345 4409 216 0 1.00000000 1.00000000 1.00000000
H 5.30352488 22.87269155 18.79285790 4410 216 0 1.00000000 1.00000000 1.00000000
H 3.28355618 22.01325771 17.93204697 4411 216 0 1.00000000 1.00000000 1.00000000
H 2.99932682 23.30300414 18.97104980 4412 216 0 1.00000000 1.00000000 1.00000000
H 2.19747599 21.75615040 20.86347492 4413 216 0 1.00000000 1.00000000 1.00000000
H 2.82454865 20.43509303 20.01896731 4414 216 0 1.00000000 1.00000000 1.00000000
H 0.84108610 21.02514549 18.25075524 4415 216 0 1.00000000 1.00000000 1.00000000
H 0.41787132 22.32200729 19.30563938 4416 216 0 1.00000000 1.00000000 1.00000000
H 0.03290879 21.02802956 21.10774606 4417 216 0 1.00000000 1.00000000 1.00000000
H 0.31100515 19.50505174 20.40331739 4418 216 0 1.00000000 1.00000000 1.00000000
H -1.98843722 20.13100167 20.55355249 4419 216 0 1.00000000 1.00000000 1.00000000
H -1.76701933 19.96928655 18.89653299 4420 216 0 1.00000000 1.00000000 1.00000000
H -1.73851276 21.60503323 19.63057779 4421 216 0 1.00000000 1.00000000 1.00000000
C 5.57836533 35.68452601 40.13331656 4422 217 0 0.56500000 0.56500000 0.56500000
C 4.74450242 35.06665287 39.01192086 4423 217 0 0.56500000 0.56500000 0.56500000
C 4.51536387 33.50635345 39.11737991 4424 217 0 0.56500000 0.56500000 0.56500000
C 3.89684251 32.81275702 37.89172847 4425 217 0 0.56500000 0.56500000 0.56500000
C 3.61146355 31.30756725 38.08451431 4426 217 0 0.56500000 0.56500000 0.56500000
C 4.75415241 30.56324866 38.76978182 4427 217 0 0.56500000 0.56500000 0.56500000
C 4.65027963 29.05514529 38.28407721 4428 217 0 0.56500000 0.56500000 0.56500000
H 5.74205824 36.76406322 40.04785685 4429 217 0 1.00000000 1.00000000 1.00000000
H 6.53077889 35.23948685 40.24630297 4430 217 0 1.00000000 1.00000000 1.00000000
H 5.00221222 35.46493123 41.08301738 4431 217 0 1.00000000 1.00000000 1.00000000
H 5.39670324 35.10144652 38.04868321 4432 217 0 1.00000000 1.00000000 1.00000000
H 3.78193961 35.58773136 38.93767326 4433 217 0 1.00000000 1.00000000 1.00000000
H 3.85548673 33.36197565 39.95595310 4434 217 0 1.00000000 1.00000000 1.00000000
H 5.51005875 33.09517836 39.31276445 4435 217 0 1.00000000 1.00000000 1.00000000
H 4.54331267 32.99117191 37.02203878 4436 217 0 1.00000000 1.00000000 1.00000000
H 2.98975928 33.34827112 37.58758460 4437 217 0 1.00000000 1.00000000 1.00000000
H 3.35929551 30.96123723 37.06318121 4438 217 0 1.00000000 1.00000000 1.00000000
H 2.64292952 31.22830108 38.73000310 4439 217 0 1.00000000 1.00000000 1.00000000
H 4.61654241 30.46315759 39.86645801 4440 217 0 1.00000000 1.00000000 1.00000000
H 5.76233826 30.96859784 38.56611676 4441 217 0 1.00000000 1.00000000 1.00000000
H 5.28377520 28.53081416 38.98377029 4442 217 0 1.00000000 1.00000000 1.00000000
H 5.04566914 28.89265733 37.34203087 4443 217 0 1.00000000 1.00000000 1.00000000
H 3.60034885 28.68018017 38.26731186 4444 217 0 1.00000000 1.00000000 1.00000000
C 9.00601859 36.09252325 42.30588610 4445 218 0 0.56500000 0.56500000 0.56500000
C 9.83979920 35.63501688 43.50963806 4446 218 0 0.56500000 0.56500000 0.56500000
C 9.83897587 34.15638315 43.86241307 4447 218 0 0.56500000 0.56500000 0.56500000
C 8.44975262 33.62617806 44.25632255 4448 218 0 0.56500000 0.56500000 0.56500000
C 8.29668012 32.12292332 44.05375517 4449 218 0 0.56500000 0.56500000 0.56500000
C 6.82297026 31.56158770 44.03009092 4450 218 0 0.56500000 0.56500000 0.56500000
C 6.14623479 31.70289437 42.62168641 4451 218 0 0.56500000 0.56500000 0.56500000
H 9.05208132 37.21759937 42.25222581 4452 218 0 1.00000000 1.00000000 1.00000000
H 7.99055375 35.85086961 42.57909559 4453 218 0 1.00000000 1.00000000 1.00000000
H 9.23899458 35.56098825 41.33726177 4454 218 0 1.00000000 1.00000000 1.00000000
H 9.48467814 36.22193000 44.38328772 4455 218 0 1.00000000 1.00000000 1.00000000
H 10.84113369 36.02235905 43.33493443 4456 218 0 1.00000000 1.00000000 1.00000000
H 10.50444621 33.96703509 44.71775324 4457 218 0 1.00000000 1.00000000 1.00000000
H 10.15277912 33.56465716 42.99331607 4458 218 0 1.00000000 1.00000000 1.00000000
H 7.59254213 34.06790415 43.65814388 4459 218 0 1.00000000 1.00000000 1.00000000
H 8.14108094 33.93423676 45.28425147 4460 218 0 1.00000000 1.00000000 1.00000000
H 8.94030739 31.45169258 44.71790855 4461 218 0 1.00000000 1.00000000 1.00000000
H 8.73496060 31.92823480 43.03707046 4462 218 0 1.00000000 1.00000000 1.00000000
H 6.15854211 32.07695486 44.74234371 4463 218 0 1.00000000 1.00000000 1.00000000
H 6.91264177 30.51160414 44.24301374 4464 218 0 1.00000000 1.00000000 1.00000000
H 5.15618438 31.32308315 42.70663051 4465 218 0 1.00000000 1.00000000 1.00000000
H 6.72810559 31.09711159 41.84043274 4466 218 0 1.00000000 1.00000000 1.00000000
H 6.09749562 32.74544621 42.20787850 4467 218 0 1.00000000 1.00000000 1.00000000
C 40.26135162 16.85533723 26.42177006 4468 219 0 0.56500000 0.56500000 0.56500000
C 41.77267033 17.12455700 26.42325852 4469 219 0 0.56500000 0.56500000 0.56500000
C 42.51105586 16.46909152 27.62088900 4470 219 0 0.56500000 0.56500000 0.56500000
C 44.00771516 16.89685377 27.63543371 4471 219 0 0.56500000 0.56500000 0.56500000
C 44.61123130 16.50579871 28.92759856 4472 219 0 0.56500000 0.56500000 0.56500000
C 46.09057616 16.86748732 29.18372531 4473 219 0 0.56500000 0.56500000 0.56500000
C 46.41860248 18.37925561 29.39897070 4474 219 0 0.56500000 0.56500000 0.56500000
H 40.05362859 15.73565992 26.46408984 4475 219 0 1.00000000 1.00000000 1.00000000
H 39.70790105 17.32537832 25.61357285 4476 219 0 1.00000000 1.00000000 1.00000000
H 39.93875968 17.30079346 27.36625880 4477 219 0 1.00000000 1.00000000 1.00000000
H 41.91465937 18.24130741 26.57479185 4478 219 0 1.00000000 1.00000000 1.00000000
H 42.30734536 16.82302654 25.54972783 4479 219 0 1.00000000 1.00000000 1.00000000
H 42.52301162 15.39323954 27.57006146 4480 219 0 1.00000000 1.00000000 1.00000000
H 42.11458868 16.71568674 28.57012321 4481 219 0 1.00000000 1.00000000 1.00000000
H 44.23599434 18.01888264 27.56837697 4482 219 0 1.00000000 1.00000000 1.00000000
H 44.43855241 16.32654250 26.78491410 4483 219 0 1.00000000 1.00000000 1.00000000
H 44.33487894 15.51647172 29.15537202 4484 219 0 1.00000000 1.00000000 1.00000000
H 43.98503467 16.94139761 29.74781537 4485 219 0 1.00000000 1.00000000 1.00000000
H 46.58725946 16.75383907 28.20701547 4486 219 0 1.00000000 1.00000000 1.00000000
H 46.59903926 16.21978245 29.91901644 4487 219 0 1.00000000 1.00000000 1.00000000
H 47.48015743 18.61316324 29.20664245 4488 219 0 1.00000000 1.00000000 1.00000000
H 46.07299407 18.75287775 30.34303602 4489 219 0 1.00000000 1.00000000 1.00000000
H 45.89674924 18.99788111 28.63455395 4490 219 0 1.00000000 1.00000000 1.00000000
C 34.39248069 27.59317940 6.40188536 4491 220 0 0.56500000 0.56500000 0.56500000
C 33.16912314 27.81904173 5.52240944 4492 220 0 0.56500000 0.56500000 0.56500000
C 33.24334804 27.08556946 4.15903503 4493 220 0 0.56500000 0.56500000 0.56500000
C 33.23625324 25.60402285 4.28334631 4494 220 0 0.56500000 0.56500000 0.56500000
C 33.25432974 24.91826138 2.87717066 4495 220 0 0.56500000 0.56500000 0.56500000
C 33.54654587 23.45921526 3.00779360 4496 220 0 0.56500000 0.56500000 0.56500000
C 33.43347073 22.62525522 1.68040455 4497 220 0 0.56500000 0.56500000 0.56500000
H 34.86309934 26.54042322 6.37504122 4498 220 0 1.00000000 1.00000000 1.00000000
H 34.26434722 27.59443597 7.43047532 4499 220 0 1.00000000 1.00000000 1.00000000
H 35.26522972 28.21939619 6.16896663 4500 220 0 1.00000000 1.00000000 1.00000000
H 33.11406942 28.90949166 5.44104499 4501 220 0 1.00000000 1.00000000 1.00000000
H 32.25969191 27.47534486 6.03224448 4502 220 0 1.00000000 1.00000000 1.00000000
H 34.09703444 27.44824652 3.58991574 4503 220 0 1.00000000 1.00000000 1.00000000
H 32.33623813 27.49899670 3.62694831 4504 220 0 1.00000000 1.00000000 1.00000000
H 32.36796673 25.29397747 4.88196776 4505 220 0 1.00000000 1.00000000 1.00000000
H 34.20519298 25.33773473 4.87599975 4506 220 0 1.00000000 1.00000000 1.00000000
H 34.01506687 25.56167705 2.39178192 4507 220 0 1.00000000 1.00000000 1.00000000
H 32.32537989 25.24850913 2.36818095 4508 220 0 1.00000000 1.00000000 1.00000000
H 32.78246442 23.06631754 3.83075540 4509 220 0 1.00000000 1.00000000 1.00000000
H 34.61866612 23.38298384 3.33688004 4510 220 0 1.00000000 1.00000000 1.00000000
H 33.57489106 21.55216800 1.87221784 4511 220 0 1.00000000 1.00000000 1.00000000
H 34.27307146 22.92398824 1.00942396 4512 220 0 1.00000000 1.00000000 1.00000000
H 32.52944761 22.88624574 1.20280071 4513 220 0 1.00000000 1.00000000 1.00000000
C 33.62811109 39.33819854 20.93587692 4514 221 0 0.56500000 0.56500000 0.56500000
C 33.43926608 39.21411622 22.43904777 4515 221 0 0.56500000 0.56500000 0.56500000
C 34.60568325 38.65559234 23.12279857 4516 221 0 0.56500000 0.56500000 0.56500000
C 34.28693883 38.08553012 24.54989678 4517 221 0 0.56500000 0.56500000 0.56500000
C 35.29541776 37.05204503 25.01098900 4518 221 0 0.56500000 0.56500000 0.56500000
C 35.18886637 36.73583225 26.52018579 4519 221 0 0.56500000 0.56500000 0.56500000
C 36.02400601 35.54407439 26.88985701 4520 221 0 0.56500000 0.56500000 0.56500000
H 32.75630394 39.79706580 20.51362001 4521 221 0 1.00000000 1.00000000 1.00000000
H 33.66479631 38.27371500 20.49753661 4522 221 0 1.00000000 1.00000000 1.00000000
H 34.59265443 39.86969452 20.71143895 4523 221 0 1.00000000 1.00000000 1.00000000
H 32.46153908 38.65266256 22.50972285 4524 221 0 1.00000000 1.00000000 1.00000000
H 33.32428567 40.25024034 22.71078116 4525 221 0 1.00000000 1.00000000 1.00000000
H 35.45598253 39.31997476 23.19368195 4526 221 0 1.00000000 1.00000000 1.00000000
H 34.94378373 37.78014325 22.57126863 4527 221 0 1.00000000 1.00000000 1.00000000
H 33.30204298 37.62488438 24.62935147 4528 221 0 1.00000000 1.00000000 1.00000000
H 34.30235055 38.84576350 25.30446328 4529 221 0 1.00000000 1.00000000 1.00000000
H 36.33566077 37.33635988 24.77119502 4530 221 0 1.00000000 1.00000000 1.00000000
H 35.17536447 36.14066968 24.42297624 4531 221 0 1.00000000 1.00000000 1.00000000
H 34.09371462 36.47734215 26.71685309 4532 221 0 1.00000000 1.00000000 1.00000000
H 35.42804055 37.62322175 27.16259215 4533 221 0 1.00000000 1.00000000 1.00000000
H 35.79115563 34.57237156 26.44676635 4534 221 0 1.00000000 1.00000000 1.00000000
H 35.76671917 35.41872703 27.96809022 4535 221 0 1.00000000 1.00000000 1.00000000
H 37.09470200 35.64195255 26.65863718 4536 221 0 1.00000000 1.00000000 1.00000000
C 50.21272602 11.70802104 20.92234384 4537 222 0 0.56500000 0.56500000 0.56500000
C 49.30794337 11.55213445 19.69330773 4538 222 0 0.56500000 0.56500000 0.56500000
C 47.84327798 11.34115116 20.10031833 4539 222 0 0.56500000 0.56500000 0.56500000
C 46.80616717 11.11477043 18.99795670 4540 222 0 0.56500000 0.56500000 0.56500000
C 45.42990926 10.81161479 19.63136955 4541 222 0 0.56500000 0.56500000 0.56500000
C 45.06474733 11.70879270 20.82794520 4542 222 0 0.56500000 0.56500000 0.56500000
C 43.66934049 11.54452763 21.39957842 4543 222 0 0.56500000 0.56500000 0.56500000
H 50.14066860 12.69103387 21.40449980 4544 222 0 1.00000000 1.00000000 1.00000000
H 51.32331779 11.64793299 20.69197261 4545 222 0 1.00000000 1.00000000 1.00000000
H 50.08239497 10.98495807 21.62820071 4546 222 0 1.00000000 1.00000000 1.00000000
H 49.67399147 10.60089214 19.19495441 4547 222 0 1.00000000 1.00000000 1.00000000
H 49.34850025 12.41744760 19.00538043 4548 222 0 1.00000000 1.00000000 1.00000000
H 47.51638846 12.22162561 20.64783548 4549 222 0 1.00000000 1.00000000 1.00000000
H 47.79410065 10.55027898 20.84732022 4550 222 0 1.00000000 1.00000000 1.00000000
H 47.03060664 10.26369201 18.35840438 4551 222 0 1.00000000 1.00000000 1.00000000
H 46.67049372 12.02503780 18.35065380 4552 222 0 1.00000000 1.00000000 1.00000000
H 45.52525166 9.84688453 19.95515703 4553 222 0 1.00000000 1.00000000 1.00000000
H 44.60952324 10.90258722 18.87485386 4554 222 0 1.00000000 1.00000000 1.00000000
H 45.31605889 12.76632066 20.52876949 4555 222 0 1.00000000 1.00000000 1.00000000
H 45.88287946 11.42437125 21.51329936 4556 222 0 1.00000000 1.00000000 1.00000000
H 43.49866684 12.32680417 22.13030757 4557 222 0 1.00000000 1.00000000 1.00000000
H 43.54796041 10.58964799 21.94860711 4558 222 0 1.00000000 1.00000000 1.00000000
H 42.91996004 11.60103595 20.62702558 4559 222 0 1.00000000 1.00000000 1.00000000
C 17.24130224 25.88967767 9.58376270 4560 223 0 0.56500000 0.56500000 0.56500000
C 15.95968404 26.60271843 9.45994224 4561 223 0 0.56500000 0.56500000 0.56500000
C 15.69653478 27.41575220 10.75727740 4562 223 0 0.56500000 0.56500000 0.56500000
C 14.27863701 27.93767580 11.00754446 4563 223 0 0.56500000 0.56500000 0.56500000
C 14.05164686 28.39253908 12.41762412 4564 223 0 0.56500000 0.56500000 0.56500000
C 15.20690597 29.28292571 12.88922837 4565 223 0 0.56500000 0.56500000 0.56500000
C 14.96546732 29.73325791 14.36216862 4566 223 0 0.56500000 0.56500000 0.56500000
H 17.16689321 25.23821890 10.48314100 4567 223 0 1.00000000 1.00000000 1.00000000
H 18.07521047 26.58108165 9.62709883 4568 223 0 1.00000000 1.00000000 1.00000000
H 17.57189353 25.24034302 8.74340778 4569 223 0 1.00000000 1.00000000 1.00000000
H 15.08641682 25.94287120 9.30021227 4570 223 0 1.00000000 1.00000000 1.00000000
H 15.88913488 27.31096413 8.56248565 4571 223 0 1.00000000 1.00000000 1.00000000
H 16.34442098 28.32515915 10.72956420 4572 223 0 1.00000000 1.00000000 1.00000000
H 16.01518907 26.80659313 11.56187200 4573 223 0 1.00000000 1.00000000 1.00000000
H 13.67988063 27.08008939 10.77032127 4574 223 0 1.00000000 1.00000000 1.00000000
H 14.05725570 28.64779043 10.29919203 4575 223 0 1.00000000 1.00000000 1.00000000
H 14.09430629 27.48258570 13.11230760 4576 223 0 1.00000000 1.00000000 1.00000000
H 13.10202696 28.83940984 12.57885020 4577 223 0 1.00000000 1.00000000 1.00000000
H 15.28859991 30.16782869 12.24286373 4578 223 0 1.00000000 1.00000000 1.00000000
H 16.07120033 28.72945714 12.57396875 4579 223 0 1.00000000 1.00000000 1.00000000
H 15.69546079 30.47334351 14.70664431 4580 223 0 1.00000000 1.00000000 1.00000000
H 15.16303866 28.97524515 15.05624607 4581 223 0 1.00000000 1.00000000 1.00000000
H 13.92407512 29.99864278 14.51349600 4582 223 0 1.00000000 1.00000000 1.00000000
C 31.92548941 36.32258462 34.24446799 4583 224 0 0.56500000 0.56500000 0.56500000
C 30.38128638 36.36422856 34.07806246 4584 224 0 0.56500000 0.56500000 0.56500000
C 29.75269312 35.04750098 34.49686741 4585 224 0 0.56500000 0.56500000 0.56500000
C 28.32475508 34.88794828 33.78584887 4586 224 0 0.56500000 0.56500000 0.56500000
C 27.69065565 33.49077395 34.02499528 4587 224 0 0.56500000 0.56500000 0.56500000
C 27.33586546 33.02236355 35.44438323 4588 224 0 0.56500000 0.56500000 0.56500000
C 26.06312942 33.59215363 36.01174070 4589 224 0 0.56500000 0.56500000 0.56500000
H 32.26321984 35.45997404 33.66280187 4590 224 0 1.00000000 1.00000000 1.00000000
H 32.19569066 36.19300639 35.25862306 4591 224 0 1.00000000 1.00000000 1.00000000
H 32.40589726 37.28331970 33.93249775 4592 224 0 1.00000000 1.00000000 1.00000000
H 30.07548205 36.53839839 33.03546772 4593 224 0 1.00000000 1.00000000 1.00000000
H 29.93105174 37.17627289 34.65842152 4594 224 0 1.00000000 1.00000000 1.00000000
H 29.59068232 35.06008779 35.55054622 4595 224 0 1.00000000 1.00000000 1.00000000
H 30.36080191 34.27886842 34.15348893 4596 224 0 1.00000000 1.00000000 1.00000000
H 28.42011933 34.99580757 32.65204243 4597 224 0 1.00000000 1.00000000 1.00000000
H 27.69197582 35.67307889 34.26760088 4598 224 0 1.00000000 1.00000000 1.00000000
H 28.39536978 32.78997144 33.53024505 4599 224 0 1.00000000 1.00000000 1.00000000
H 26.78517293 33.46041101 33.49168383 4600 224 0 1.00000000 1.00000000 1.00000000
H 28.18275990 33.24848348 36.06893338 4601 224 0 1.00000000 1.00000000 1.00000000
H 27.21426082 31.95234304 35.38069195 4602 224 0 1.00000000 1.00000000 1.00000000
H 25.12927661 33.36752736 35.46229281 4603 224 0 1.00000000 1.00000000 1.00000000
H 26.17046331 34.66898634 36.14168454 4604 224 0 1.00000000 1.00000000 1.00000000
H 25.83637363 33.17955022 36.99578566 4605 224 0 1.00000000 1.00000000 1.00000000
C 1.75486638 28.56746905 -0.50627593 4606 225 0 0.56500000 0.56500000 0.56500000
C 2.50098752 29.97285377 -0.63559297 4607 225 0 0.56500000 0.56500000 0.56500000
C 2.09734765 30.93164443 0.48634302 4608 225 0 0.56500000 0.56500000 0.56500000
C 2.85430356 32.31730905 0.57100706 4609 225 0 0.56500000 0.56500000 0.56500000
C 2.17060163 33.27859468 1.55886886 4610 225 0 0.56500000 0.56500000 0.56500000
C 0.85192476 33.75753452 0.96643821 4611 225 0 0.56500000 0.56500000 0.56500000
C 0.17032414 34.70870135 1.99386957 4612 225 0 0.56500000 0.56500000 0.56500000
H 1.95933963 27.90418585 -1.27777520 4613 225 0 1.00000000 1.00000000 1.00000000
H 0.71018249 28.65831476 -0.41804517 4614 225 0 1.00000000 1.00000000 1.00000000
H 2.04990438 27.95453621 0.37607264 4615 225 0 1.00000000 1.00000000 1.00000000
H 2.28956530 30.36768030 -1.66423672 4616 225 0 1.00000000 1.00000000 1.00000000
H 3.58589275 29.76994996 -0.53691588 4617 225 0 1.00000000 1.00000000 1.00000000
H 2.14039285 30.48615366 1.48152077 4618 225 0 1.00000000 1.00000000 1.00000000
H 1.04383606 31.04581509 0.24791144 4619 225 0 1.00000000 1.00000000 1.00000000
H 3.02208073 32.77202022 -0.48550506 4620 225 0 1.00000000 1.00000000 1.00000000
H 3.89561485 32.07617937 0.92732874 4621 225 0 1.00000000 1.00000000 1.00000000
H 2.78606100 34.14258309 1.83134652 4622 225 0 1.00000000 1.00000000 1.00000000
H 1.99192727 32.75598278 2.52665190 4623 225 0 1.00000000 1.00000000 1.00000000
H 0.13763292 32.99402279 0.73771601 4624 225 0 1.00000000 1.00000000 1.00000000
H 1.06194350 34.34011565 0.04321806 4625 225 0 1.00000000 1.00000000 1.00000000
H -0.27575923 34.14279173 2.85412424 4626 225 0 1.00000000 1.00000000 1.00000000
H -0.66025080 35.24834793 1.50916863 4627 225 0 1.00000000 1.00000000 1.00000000
H 0.81901902 35.42725700 2.42498548 4628 225 0 1.00000000 1.00000000 1.00000000
C 29.84164437 27.92828244 -0.58470778 4629 226 0 0.56500000 0.56500000 0.56500000
C 29.82186568 26.89674347 0.56697982 4630 226 0 0.56500000 0.56500000 0.56500000
C 28.77566535 27.26437820 1.61029648 4631 226 0 0.56500000 0.56500000 0.56500000
C 28.07846107 26.19271516 2.40415177 4632 226 0 0.56500000 0.56500000 0.56500000
C 27.10122673 25.32773047 1.72634245 4633 226 0 0.56500000 0.56500000 0.56500000
C 26.47406881 24.37905002 2.63998526 4634 226 0 0.56500000 0.56500000 0.56500000
C 25.51201219 23.38612177 2.13206691 4635 226 0 0.56500000 0.56500000 0.56500000
H 30.57340775 27.61367311 -1.39022332 4636 226 0 1.00000000 1.00000000 1.00000000
H 30.10432159 28.88721921 -0.20777752 4637 226 0 1.00000000 1.00000000 1.00000000
H 28.82363217 27.86292495 -0.99388118 4638 226 0 1.00000000 1.00000000 1.00000000
H 30.79431801 26.75370915 1.08974065 4639 226 0 1.00000000 1.00000000 1.00000000
H 29.56754791 25.97812297 0.15730883 4640 226 0 1.00000000 1.00000000 1.00000000
H 28.06744907 27.95767760 1.12535486 4641 226 0 1.00000000 1.00000000 1.00000000
H 29.17922148 27.90535738 2.32707096 4642 226 0 1.00000000 1.00000000 1.00000000
H 27.57800129 26.55545621 3.27192100 4643 226 0 1.00000000 1.00000000 1.00000000
H 28.88404403 25.44959749 2.59541729 4644 226 0 1.00000000 1.00000000 1.00000000
H 27.57442290 24.77954256 0.95128866 4645 226 0 1.00000000 1.00000000 1.00000000
H 26.31627402 25.89642322 1.28761318 4646 226 0 1.00000000 1.00000000 1.00000000
H 25.96942867 24.98562015 3.40804336 4647 226 0 1.00000000 1.00000000 1.00000000
H 27.25736994 23.94059986 3.25208789 4648 226 0 1.00000000 1.00000000 1.00000000
H 25.98228013 22.59539481 1.52957002 4649 226 0 1.00000000 1.00000000 1.00000000
H 24.80527329 23.85387961 1.42519704 4650 226 0 1.00000000 1.00000000 1.00000000
H 24.85705053 22.92687070 2.85100127 4651 226 0 1.00000000 1.00000000 1.00000000
C 24.07332169 28.70972072 11.19693280 4652 227 0 0.56500000 0.56500000 0.56500000
C 23.96435377 28.32470231 12.67389240 4653 227 0 0.56500000 0.56500000 0.56500000
C 22.61014367 28.72054919 13.27747357 4654 227 0 0.56500000 0.56500000 0.56500000
C 21.42841885 28.15539204 12.53411349 4655 227 0 0.56500000 0.56500000 0.56500000
C 20.98220907 26.73853783 12.94344829 4656 227 0 0.56500000 0.56500000 0.56500000
C 19.64845047 26.32055669 12.36946937 4657 227 0 0.56500000 0.56500000 0.56500000
C 18.94839244 25.08003006 12.88223101 4658 227 0 0.56500000 0.56500000 0.56500000
H 23.84340026 27.77801796 10.59335692 4659 227 0 1.00000000 1.00000000 1.00000000
H 25.07534985 29.00183359 10.99074125 4660 227 0 1.00000000 1.00000000 1.00000000
H 23.39943869 29.47413562 10.85345103 4661 227 0 1.00000000 1.00000000 1.00000000
H 24.76056236 28.68058723 13.32580004 4662 227 0 1.00000000 1.00000000 1.00000000
H 24.20581960 27.25696418 12.78112843 4663 227 0 1.00000000 1.00000000 1.00000000
H 22.59204471 29.78210544 13.29795013 4664 227 0 1.00000000 1.00000000 1.00000000
H 22.53100157 28.35690366 14.39014448 4665 227 0 1.00000000 1.00000000 1.00000000
H 21.61768273 28.12385474 11.44871046 4666 227 0 1.00000000 1.00000000 1.00000000
H 20.48317206 28.75648813 12.64776031 4667 227 0 1.00000000 1.00000000 1.00000000
H 21.08485518 26.63745051 13.99419429 4668 227 0 1.00000000 1.00000000 1.00000000
H 21.80942471 26.08978488 12.48844179 4669 227 0 1.00000000 1.00000000 1.00000000
H 19.82904700 26.21351233 11.34857737 4670 227 0 1.00000000 1.00000000 1.00000000
H 18.95478527 27.17597783 12.44721575 4671 227 0 1.00000000 1.00000000 1.00000000
H 18.46111704 25.07723134 13.86838812 4672 227 0 1.00000000 1.00000000 1.00000000
H 19.65930327 24.33383132 12.83786571 4673 227 0 1.00000000 1.00000000 1.00000000
H 18.17422503 24.73695126 12.19211448 4674 227 0 1.00000000 1.00000000 1.00000000
C 39.82379653 43.68794961 3.41069800 4675 228 0 0.56500000 0.56500000 0.56500000
C 40.56795911 42.61132534 2.61548284 4676 228 0 0.56500000 0.56500000 0.56500000
C 39.74899333 41.97849398 1.53559984 4677 228 0 0.56500000 0.56500000 0.56500000
C 40.58462907 40.96481456 0.65773257 4678 228 0 0.56500000 0.56500000 0.56500000
C 39.70125250 40.24811265 -0.38852227 4679 228 0 0.56500000 0.56500000 0.56500000
C 38.84798494 39.12402471 0.16350568 4680 228 0 0.56500000 0.56500000 0.56500000
C 39.67834615 38.05656521 0.80982634 4681 228 0 0.56500000 0.56500000 0.56500000
H 39.06213502 43.18813918 4.04246549 4682 228 0 1.00000000 1.00000000 1.00000000
H 39.42094772 44.41969323 2.71276830 4683 228 0 1.00000000 1.00000000 1.00000000
H 40.36660076 44.34339266 4.15259587 4684 228 0 1.00000000 1.00000000 1.00000000
H 40.88228077 41.81653811 3.32400376 4685 228 0 1.00000000 1.00000000 1.00000000
H 41.50095348 43.16883881 2.28408702 4686 228 0 1.00000000 1.00000000 1.00000000
H 39.38421702 42.73251755 0.86001260 4687 228 0 1.00000000 1.00000000 1.00000000
H 38.90161768 41.44034865 1.92694688 4688 228 0 1.00000000 1.00000000 1.00000000
H 41.08056617 40.20774690 1.24715384 4689 228 0 1.00000000 1.00000000 1.00000000
H 41.39627585 41.56679188 0.25775619 4690 228 0 1.00000000 1.00000000 1.00000000
H 40.43483354 39.86712592 -1.07437645 4691 228 0 1.00000000 1.00000000 1.00000000
H 39.15488129 40.96621750 -0.98809739 4692 228 0 1.00000000 1.00000000 1.00000000
H 38.27432292 38.56938237 -0.65875218 4693 228 0 1.00000000 1.00000000 1.00000000
H 38.08457270 39.50383127 0.80888214 4694 228 0 1.00000000 1.00000000 1.00000000
H 39.00535578 37.24165025 0.99450863 4695 228 0 1.00000000 1.00000000 1.00000000
H 40.22106543 38.28234161 1.75792528 4696 228 0 1.00000000 1.00000000 1.00000000
H 40.43384801 37.70372228 0.12978615 4697 228 0 1.00000000 1.00000000 1.00000000
C 15.45613383 42.56931449 35.97059180 4698 229 0 0.56500000 0.56500000 0.56500000
C 16.20697602 42.68317967 37.24909547 4699 229 0 0.56500000 0.56500000 0.56500000
C 17.08035799 43.95950021 37.34355697 4700 229 0 0.56500000 0.56500000 0.56500000
C 18.05698654 43.92557889 38.56234238 4701 229 0 0.56500000 0.56500000 0.56500000
C 17.44265675 43.80753142 39.95996127 4702 229 0 0.56500000 0.56500000 0.56500000
C 18.65372019 43.67419116 41.00168861 4703 229 0 0.56500000 0.56500000 0.56500000
C 18.29956619 42.75717918 42.10933383 4704 229 0 0.56500000 0.56500000 0.56500000
H 16.07348332 42.16376579 35.12594168 4705 229 0 1.00000000 1.00000000 1.00000000
H 15.12513380 43.60533346 35.69222088 4706 229 0 1.00000000 1.00000000 1.00000000
H 14.54086944 41.91574529 36.02801671 4707 229 0 1.00000000 1.00000000 1.00000000
H 16.79496747 41.83469643 37.50451635 4708 229 0 1.00000000 1.00000000 1.00000000
H 15.54558202 42.79539711 38.10568596 4709 229 0 1.00000000 1.00000000 1.00000000
H 16.41112063 44.78863583 37.42940943 4710 229 0 1.00000000 1.00000000 1.00000000
H 17.61753873 44.11971432 36.33982668 4711 229 0 1.00000000 1.00000000 1.00000000
H 18.75405788 44.80058501 38.42093218 4712 229 0 1.00000000 1.00000000 1.00000000
H 18.72159741 43.04137392 38.46215231 4713 229 0 1.00000000 1.00000000 1.00000000
H 16.86975886 42.87587352 40.06742351 4714 229 0 1.00000000 1.00000000 1.00000000
H 16.76316091 44.66358720 40.26382966 4715 229 0 1.00000000 1.00000000 1.00000000
H 19.03883640 44.58420391 41.44291651 4716 229 0 1.00000000 1.00000000 1.00000000
H 19.55068406 43.32781600 40.55694512 4717 229 0 1.00000000 1.00000000 1.00000000
H 17.99290188 41.74689526 41.75848320 4718 229 0 1.00000000 1.00000000 1.00000000
H 17.42258947 43.08691598 42.65872444 4719 229 0 1.00000000 1.00000000 1.00000000
H 19.08588764 42.72531473 42.88245251 4720 229 0 1.00000000 1.00000000 1.00000000
C 19.22617135 52.31463789 16.46827282 4721 230 0 0.56500000 0.56500000 0.56500000
C 19.68395227 50.79949080 16.29323937 4722 230 0 0.56500000 0.56500000 0.56500000
C 18.68828419 49.77254062 16.65939974 4723 230 0 0.56500000 0.56500000 0.56500000
C 19.32911844 48.40216062 16.61309019 4724 230 0 0.56500000 0.56500000 0.56500000
C 18.51668206 47.34518377 15.84714710 4725 230 0 0.56500000 0.56500000 0.56500000
C 17.18303813 46.84187948 16.41336644 4726 230 0 0.56500000 0.56500000 0.56500000
C 16.38144223 45.88680274 15.56174725 4727 230 0 0.56500000 0.56500000 0.56500000
H 20.07766638 52.86788160 16.13107647 4728 230 0 1.00000000 1.00000000 1.00000000
H 18.97377511 52.55426203 17.50071892 4729 230 0 1.00000000 1.00000000 1.00000000
H 18.20762753 52.44839388 15.96102079 4730 230 0 1.00000000 1.00000000 1.00000000
H 20.63792741 50.72712510 16.86894146 4731 230 0 1.00000000 1.00000000 1.00000000
H 19.99925103 50.53992702 15.18346512 4732 230 0 1.00000000 1.00000000 1.00000000
H 17.89778461 49.77715319 15.86924739 4733 230 0 1.00000000 1.00000000 1.00000000
H 18.21247308 50.07787834 17.58667348 4734 230 0 1.00000000 1.00000000 1.00000000
H 19.63447224 48.09780437 17.67915713 4735 230 0 1.00000000 1.00000000 1.00000000
H 20.32664830 48.41270726 16.10845146 4736 230 0 1.00000000 1.00000000 1.00000000
H 19.24859021 46.51096815 15.71936341 4737 230 0 1.00000000 1.00000000 1.00000000
H 18.29049074 47.68818977 14.84516155 4738 230 0 1.00000000 1.00000000 1.00000000
H 16.49233785 47.69589703 16.63039873 4739 230 0 1.00000000 1.00000000 1.00000000
H 17.37989572 46.30435986 17.41828446 4740 230 0 1.00000000 1.00000000 1.00000000
H 15.43574404 45.50550698 15.96138803 4741 230 0 1.00000000 1.00000000 1.00000000
H 16.92477301 44.97221516 15.44369630 4742 230 0 1.00000000 1.00000000 1.00000000
H 16.12110352 46.25589353 14.59586406 4743 230 0 1.00000000 1.00000000 1.00000000
C 7.12984948 29.95314793 8.58340385 4744 231 0 0.56500000 0.56500000 0.56500000
C 7.69630664 28.68757347 7.91199719 4745 231 0 0.56500000 0.56500000 0.56500000
C 6.64883279 28.14941061 6.90391012 4746 231 0 0.56500000 0.56500000 0.56500000
C 7.24320167 27.37379654 5.65524879 4747 231 0 0.56500000 0.56500000 0.56500000
C 6.14817983 27.15754366 4.62555255 4748 231 0 0.56500000 0.56500000 0.56500000
C 5.75177285 28.43789305 3.83165438 4749 231 0 0.56500000 0.56500000 0.56500000
C 4.76083521 28.14988202 2.62415416 4750 231 0 0.56500000 0.56500000 0.56500000
H 7.74986523 30.27013980 9.41069265 4751 231 0 1.00000000 1.00000000 1.00000000
H 6.19408162 29.71642759 9.09106444 4752 231 0 1.00000000 1.00000000 1.00000000
H 6.95135344 30.73704569 7.87538314 4753 231 0 1.00000000 1.00000000 1.00000000
H 7.96926614 27.92124076 8.62702259 4754 231 0 1.00000000 1.00000000 1.00000000
H 8.58581581 28.94636515 7.34965136 4755 231 0 1.00000000 1.00000000 1.00000000
H 6.08663583 29.03322185 6.50109836 4756 231 0 1.00000000 1.00000000 1.00000000
H 5.97480125 27.45796916 7.43983595 4757 231 0 1.00000000 1.00000000 1.00000000
H 7.76580382 26.36803692 5.91872602 4758 231 0 1.00000000 1.00000000 1.00000000
H 8.05861342 28.05106439 5.24193159 4759 231 0 1.00000000 1.00000000 1.00000000
H 5.23185978 26.77371644 5.12042086 4760 231 0 1.00000000 1.00000000 1.00000000
H 6.40190518 26.48029697 3.84794558 4761 231 0 1.00000000 1.00000000 1.00000000
H 6.64620324 28.86259034 3.35372999 4762 231 0 1.00000000 1.00000000 1.00000000
H 5.38641751 29.23116841 4.55779050 4763 231 0 1.00000000 1.00000000 1.00000000
H 5.15713632 27.26453177 2.02726784 4764 231 0 1.00000000 1.00000000 1.00000000
H 4.62388117 28.93994768 1.81741440 4765 231 0 1.00000000 1.00000000 1.00000000
H 3.78398732 27.83980390 2.99769598 4766 231 0 1.00000000 1.00000000 1.00000000
C 14.48026362 37.93683297 10.27934316 4767 232 0 0.56500000 0.56500000 0.56500000
C 14.33767697 39.24143443 11.06953589 4768 232 0 0.56500000 0.56500000 0.56500000
C 12.81911844 39.45825820 11.31955840 4769 232 0 0.56500000 0.56500000 0.56500000
C 12.38498274 38.64703576 12.52968317 4770 232 0 0.56500000 0.56500000 0.56500000
C 11.08082136 39.10962383 13.26320961 4771 232 0 0.56500000 0.56500000 0.56500000
C 9.70193520 38.98454832 12.53198882 4772 232 0 0.56500000 0.56500000 0.56500000
C 8.55444063 39.19532254 13.42281096 4773 232 0 0.56500000 0.56500000 0.56500000
H 13.78593984 38.03444593 9.43171620 4774 232 0 1.00000000 1.00000000 1.00000000
H 14.17246256 37.10029441 10.92425740 4775 232 0 1.00000000 1.00000000 1.00000000
H 15.46946882 37.84698476 9.86631209 4776 232 0 1.00000000 1.00000000 1.00000000
H 14.84665123 40.01564347 10.54867995 4777 232 0 1.00000000 1.00000000 1.00000000
H 14.69256907 39.20314381 12.09349637 4778 232 0 1.00000000 1.00000000 1.00000000
H 12.25368180 39.16855072 10.47491538 4779 232 0 1.00000000 1.00000000 1.00000000
H 12.55118234 40.51878969 11.45889900 4780 232 0 1.00000000 1.00000000 1.00000000
H 13.22723877 38.62099367 13.20871794 4781 232 0 1.00000000 1.00000000 1.00000000
H 12.23802257 37.60265919 12.27205953 4782 232 0 1.00000000 1.00000000 1.00000000
H 11.27066893 40.08864230 13.73547078 4783 232 0 1.00000000 1.00000000 1.00000000
H 11.01591363 38.56176449 14.16864633 4784 232 0 1.00000000 1.00000000 1.00000000
H 9.63288292 37.98191089 12.14029708 4785 232 0 1.00000000 1.00000000 1.00000000
H 9.71540240 39.61941748 11.71228140 4786 232 0 1.00000000 1.00000000 1.00000000
H 8.55360465 38.45226598 14.23376189 4787 232 0 1.00000000 1.00000000 1.00000000
H 7.58857918 39.03325389 12.93677120 4788 232 0 1.00000000 1.00000000 1.00000000
H 8.52626578 40.23159370 13.69772874 4789 232 0 1.00000000 1.00000000 1.00000000
C 31.54417617 49.04137111 31.46857653 4790 233 0 0.56500000 0.56500000 0.56500000
C 31.14439471 50.12409598 30.39004367 4791 233 0 0.56500000 0.56500000 0.56500000
C 29.79507924 49.70907969 29.65338973 4792 233 0 0.56500000 0.56500000 0.56500000
C 28.50551844 50.12920742 30.44054865 4793 233 0 0.56500000 0.56500000 0.56500000
C 28.19428221 51.64193330 30.37849777 4794 233 0 0.56500000 0.56500000 0.56500000
C 26.83915226 51.97382141 30.95993233 4795 233 0 0.56500000 0.56500000 0.56500000
C 26.73156526 52.32808980 32.49934833 4796 233 0 0.56500000 0.56500000 0.56500000
H 30.66518032 48.70691671 32.08779961 4797 233 0 1.00000000 1.00000000 1.00000000
H 32.27883408 49.39949047 32.17448341 4798 233 0 1.00000000 1.00000000 1.00000000
H 31.80237745 48.12470239 30.87605008 4799 233 0 1.00000000 1.00000000 1.00000000
H 31.93978497 50.14048860 29.62522734 4800 233 0 1.00000000 1.00000000 1.00000000
H 31.04142336 51.11201672 30.79189747 4801 233 0 1.00000000 1.00000000 1.00000000
H 29.84076007 48.56519751 29.48058359 4802 233 0 1.00000000 1.00000000 1.00000000
H 29.73664775 50.12882218 28.63950536 4803 233 0 1.00000000 1.00000000 1.00000000
H 28.68733919 49.72748301 31.44146539 4804 233 0 1.00000000 1.00000000 1.00000000
H 27.73018168 49.55577781 30.00255676 4805 233 0 1.00000000 1.00000000 1.00000000
H 28.25129844 51.93442446 29.35152341 4806 233 0 1.00000000 1.00000000 1.00000000
H 29.01106556 52.13236716 30.92059878 4807 233 0 1.00000000 1.00000000 1.00000000
H 26.19456171 51.14616128 30.86486294 4808 233 0 1.00000000 1.00000000 1.00000000
H 26.30432685 52.81001408 30.51472986 4809 233 0 1.00000000 1.00000000 1.00000000
H 25.70625412 52.65731089 32.75865807 4810 233 0 1.00000000 1.00000000 1.00000000
H 27.42488732 53.13788355 32.65839357 4811 233 0 1.00000000 1.00000000 1.00000000
H 26.99725974 51.51815269 33.15085443 4812 233 0 1.00000000 1.00000000 1.00000000
C 40.18032023 9.90009445 -0.21450013 4813 234 0 0.56500000 0.56500000 0.56500000
C 40.60778196 9.44487453 1.21157036 4814 234 0 0.56500000 0.56500000 0.56500000
C 41.90690518 8.69700608 1.20100919 4815 234 0 0.56500000 0.56500000 0.56500000
C 41.99469607 7.46693233 0.32657054 4816 234 0 0.56500000 0.56500000 0.56500000
C 43.27304685 6.69030312 0.56066353 4817 234 0 0.56500000 0.56500000 0.56500000
C 44.63480322 7.30960439 0.09011391 4818 234 0 0.56500000 0.56500000 0.56500000
C 45.83808232 6.39303561 0.34252011 4819 234 0 0.56500000 0.56500000 0.56500000
H 40.88867461 10.53301415 -0.67281552 4820 234 0 1.00000000 1.00000000 1.00000000
H 39.22038911 10.44211722 -0.25673151 4821 234 0 1.00000000 1.00000000 1.00000000
H 40.04218653 9.08849544 -0.85365084 4822 234 0 1.00000000 1.00000000 1.00000000
H 39.81301540 8.96937952 1.79479070 4823 234 0 1.00000000 1.00000000 1.00000000
H 40.71634064 10.40908555 1.68548686 4824 234 0 1.00000000 1.00000000 1.00000000
H 42.09248956 8.27746064 2.19617215 4825 234 0 1.00000000 1.00000000 1.00000000
H 42.71213835 9.40283594 0.85539776 4826 234 0 1.00000000 1.00000000 1.00000000
H 41.91050000 7.84059249 -0.67113515 4827 234 0 1.00000000 1.00000000 1.00000000
H 41.22017722 6.78859572 0.55936774 4828 234 0 1.00000000 1.00000000 1.00000000
H 43.24708317 5.65430176 0.14198088 4829 234 0 1.00000000 1.00000000 1.00000000
H 43.32343956 6.41400808 1.59807682 4830 234 0 1.00000000 1.00000000 1.00000000
H 44.83088271 8.37393104 0.45567532 4831 234 0 1.00000000 1.00000000 1.00000000
H 44.61216431 7.39627049 -1.05858797 4832 234 0 1.00000000 1.00000000 1.00000000
H 46.80673286 6.88187926 0.11212468 4833 234 0 1.00000000 1.00000000 1.00000000
H 45.74690587 5.51313413 -0.30362160 4834 234 0 1.00000000 1.00000000 1.00000000
H 45.85429026 6.04876548 1.36194183 4835 234 0 1.00000000 1.00000000 1.00000000
C 9.82567044 4.98672701 40.54578817 4836 235 0 0.56500000 0.56500000 0.56500000
C 10.46715519 4.37949941 41.85106950 4837 235 0 0.56500000 0.56500000 0.56500000
C 9.88028565 4.83555101 43.22808485 4838 235 0 0.56500000 0.56500000 0.56500000
C 8.57508755 4.19462480 43.77489287 4839 235 0 0.56500000 0.56500000 0.56500000
C 8.65185034 2.66930457 43.88841713 4840 235 0 0.56500000 0.56500000 0.56500000
C 7.37938015 1.97458221 44.32472880 4841 235 0 0.56500000 0.56500000 0.56500000
C 7.62302754 0.44800334 44.39386740 4842 235 0 0.56500000 0.56500000 0.56500000
H 10.55458648 4.65567770 39.80206739 4843 235 0 1.00000000 1.00000000 1.00000000
H 9.99173077 6.04102342 40.55805947 4844 235 0 1.00000000 1.00000000 1.00000000
H 8.79892252 4.76936479 40.47578749 4845 235 0 1.00000000 1.00000000 1.00000000
H 11.51939383 4.81125494 41.86770469 4846 235 0 1.00000000 1.00000000 1.00000000
H 10.47093204 3.31087270 41.81874349 4847 235 0 1.00000000 1.00000000 1.00000000
H 9.75962469 5.93403605 43.27082099 4848 235 0 1.00000000 1.00000000 1.00000000
H 10.65009017 4.70215877 44.02757850 4849 235 0 1.00000000 1.00000000 1.00000000
H 7.77107420 4.41355315 42.96521072 4850 235 0 1.00000000 1.00000000 1.00000000
H 8.32396330 4.74852995 44.67985676 4851 235 0 1.00000000 1.00000000 1.00000000
H 9.51037920 2.30391979 44.51227244 4852 235 0 1.00000000 1.00000000 1.00000000
H 8.83432434 2.38958495 42.85881140 4853 235 0 1.00000000 1.00000000 1.00000000
H 6.48921098 2.30738648 43.69449396 4854 235 0 1.00000000 1.00000000 1.00000000
H 7.09616578 2.26786814 45.37468763 4855 235 0 1.00000000 1.00000000 1.00000000
H 8.50209314 0.21447570 44.90949670 4856 235 0 1.00000000 1.00000000 1.00000000
H 7.67671271 0.04471287 43.35395148 4857 235 0 1.00000000 1.00000000 1.00000000
H 6.76236184 -0.10352663 44.80743091 4858 235 0 1.00000000 1.00000000 1.00000000
C 2.22933218 35.40881833 29.66809847 4859 236 0 0.56500000 0.56500000 0.56500000
C 1.13004237 34.40076506 29.84052333 4860 236 0 0.56500000 0.56500000 0.56500000
C 0.25598024 34.11846112 28.57142533 4861 236 0 0.56500000 0.56500000 0.56500000
C 0.99019853 33.74527767 27.26366807 4862 236 0 0.56500000 0.56500000 0.56500000
C 1.97002403 32.59658407 27.29398821 4863 236 0 0.56500000 0.56500000 0.56500000
C 1.28755156 31.19600991 27.39977217 4864 236 0 0.56500000 0.56500000 0.56500000
C 2.22559900 30.06623464 27.79872856 4865 236 0 0.56500000 0.56500000 0.56500000
H 2.87407445 35.10099270 28.85933211 4866 236 0 1.00000000 1.00000000 1.00000000
H 2.91070253 35.36739849 30.52778207 4867 236 0 1.00000000 1.00000000 1.00000000
H 1.80305499 36.38242915 29.50734346 4868 236 0 1.00000000 1.00000000 1.00000000
H 0.45970583 34.89226661 30.61745894 4869 236 0 1.00000000 1.00000000 1.00000000
H 1.52449318 33.48578606 30.20184554 4870 236 0 1.00000000 1.00000000 1.00000000
H -0.28915399 35.04622767 28.22001695 4871 236 0 1.00000000 1.00000000 1.00000000
H -0.42441940 33.34703438 28.86368436 4872 236 0 1.00000000 1.00000000 1.00000000
H 1.58120679 34.61841033 27.03268394 4873 236 0 1.00000000 1.00000000 1.00000000
H 0.22390016 33.51046943 26.50280365 4874 236 0 1.00000000 1.00000000 1.00000000
H 2.71518565 32.78370406 28.09268532 4875 236 0 1.00000000 1.00000000 1.00000000
H 2.60726041 32.49154142 26.38812752 4876 236 0 1.00000000 1.00000000 1.00000000
H 0.86440387 30.91701966 26.42105793 4877 236 0 1.00000000 1.00000000 1.00000000
H 0.60521100 31.25429437 28.21103882 4878 236 0 1.00000000 1.00000000 1.00000000
H 1.82569694 29.05760726 27.86256203 4879 236 0 1.00000000 1.00000000 1.00000000
H 2.69579170 30.21985981 28.73766676 4880 236 0 1.00000000 1.00000000 1.00000000
H 3.09588317 30.02443445 27.14988630 4881 236 0 1.00000000 1.00000000 1.00000000
C 17.58028035 17.85129685 8.58588524 4882 237 0 0.56500000 0.56500000 0.56500000
C 19.11475287 17.91223678 8.50697381 4883 237 0 0.56500000 0.56500000 0.56500000
C 19.66630680 17.09039911 7.31874123 4884 237 0 0.56500000 0.56500000 0.56500000
C 19.75322468 17.95543364 6.05242367 4885 237 0 0.56500000 0.56500000 0.56500000
C 20.21810614 17.08774305 4.86328093 4886 237 0 0.56500000 0.56500000 0.56500000
C 20.19642432 17.75912125 3.45264698 4887 237 0 0.56500000 0.56500000 0.56500000
C 20.24801489 16.75650294 2.33756282 4888 237 0 0.56500000 0.56500000 0.56500000
H 17.21392019 18.28907312 7.65893304 4889 237 0 1.00000000 1.00000000 1.00000000
H 17.10659939 18.33786201 9.46825679 4890 237 0 1.00000000 1.00000000 1.00000000
H 17.28621490 16.78535997 8.53403987 4891 237 0 1.00000000 1.00000000 1.00000000
H 19.56557905 17.52813900 9.46390477 4892 237 0 1.00000000 1.00000000 1.00000000
H 19.43363650 18.95124179 8.39415106 4893 237 0 1.00000000 1.00000000 1.00000000
H 19.04317257 16.19774640 7.12391687 4894 237 0 1.00000000 1.00000000 1.00000000
H 20.64040474 16.74939285 7.65174722 4895 237 0 1.00000000 1.00000000 1.00000000
H 20.34193195 18.90276050 6.20408017 4896 237 0 1.00000000 1.00000000 1.00000000
H 18.70232875 18.31335107 5.90932805 4897 237 0 1.00000000 1.00000000 1.00000000
H 19.64691167 16.18874745 4.79751874 4898 237 0 1.00000000 1.00000000 1.00000000
H 21.24546626 16.73942371 5.18105237 4899 237 0 1.00000000 1.00000000 1.00000000
H 20.98845556 18.51284860 3.28556582 4900 237 0 1.00000000 1.00000000 1.00000000
H 19.29884326 18.33333038 3.28984657 4901 237 0 1.00000000 1.00000000 1.00000000
H 19.72966329 15.76771686 2.53767864 4902 237 0 1.00000000 1.00000000 1.00000000
H 21.28652122 16.52207199 1.95626725 4903 237 0 1.00000000 1.00000000 1.00000000
H 19.79244727 17.16651352 1.41332988 4904 237 0 1.00000000 1.00000000 1.00000000
C 42.68217974 7.57881025 -4.02581202 4905 238 0 0.56500000 0.56500000 0.56500000
C 42.45609074 8.03658862 -5.43939838 4906 238 0 0.56500000 0.56500000 0.56500000
C 43.01493619 9.41211256 -5.92811278 4907 238 0 0.56500000 0.56500000 0.56500000
C 42.28024741 10.57773236 -5.12156084 4908 238 0 0.56500000 0.56500000 0.56500000
C 42.75580033 11.93074781 -5.56421675 4909 238 0 0.56500000 0.56500000 0.56500000
C 42.32439597 13.09184732 -4.58204356 4910 238 0 0.56500000 0.56500000 0.56500000
C 42.46322617 14.47159598 -5.05979661 4911 238 0 0.56500000 0.56500000 0.56500000
H 43.71871726 7.43088280 -3.72307278 4912 238 0 1.00000000 1.00000000 1.00000000
H 42.16723106 6.63070821 -3.92609423 4913 238 0 1.00000000 1.00000000 1.00000000
H 42.18542964 8.30365816 -3.22505171 4914 238 0 1.00000000 1.00000000 1.00000000
H 41.39853325 7.99039290 -5.60480037 4915 238 0 1.00000000 1.00000000 1.00000000
H 42.83372914 7.21781105 -6.01623686 4916 238 0 1.00000000 1.00000000 1.00000000
H 42.82542369 9.54604003 -7.00216744 4917 238 0 1.00000000 1.00000000 1.00000000
H 44.05788793 9.54695639 -5.68880309 4918 238 0 1.00000000 1.00000000 1.00000000
H 42.60117544 10.44767609 -4.03457002 4919 238 0 1.00000000 1.00000000 1.00000000
H 41.15474303 10.42805330 -5.25618176 4920 238 0 1.00000000 1.00000000 1.00000000
H 42.36693597 12.20219052 -6.57420987 4921 238 0 1.00000000 1.00000000 1.00000000
H 43.84319024 12.06847205 -5.68914722 4922 238 0 1.00000000 1.00000000 1.00000000
H 42.85368155 12.94348859 -3.62409412 4923 238 0 1.00000000 1.00000000 1.00000000
H 41.31258778 12.84237517 -4.35997449 4924 238 0 1.00000000 1.00000000 1.00000000
H 42.06858205 15.10713773 -4.35952872 4925 238 0 1.00000000 1.00000000 1.00000000
H 41.99266886 14.61635992 -5.97338725 4926 238 0 1.00000000 1.00000000 1.00000000
H 43.58769217 14.64891928 -5.17821517 4927 238 0 1.00000000 1.00000000 1.00000000
C 21.81934145 5.24026614 46.30156793 4928 239 0 0.56500000 0.56500000 0.56500000
C 22.26464452 5.42593472 44.86212782 4929 239 0 0.56500000 0.56500000 0.56500000
C 23.53158399 4.52673326 44.48519257 4930 239 0 0.56500000 0.56500000 0.56500000
C 24.21993891 4.97026690 43.22000874 4931 239 0 0.56500000 0.56500000 0.56500000
C 23.86679169 4.19333250 41.96375329 4932 239 0 0.56500000 0.56500000 0.56500000
C 23.78853005 4.99283760 40.67309412 4933 239 0 0.56500000 0.56500000 0.56500000
C 22.95586678 4.14846833 39.67720630 4934 239 0 0.56500000 0.56500000 0.56500000
H 21.48307382 4.16868302 46.44722939 4935 239 0 1.00000000 1.00000000 1.00000000
H 21.11184078 6.03104461 46.55589963 4936 239 0 1.00000000 1.00000000 1.00000000
H 22.66320776 5.28284326 46.96657461 4937 239 0 1.00000000 1.00000000 1.00000000
H 22.64132706 6.45156929 44.66844089 4938 239 0 1.00000000 1.00000000 1.00000000
H 21.31775725 5.30490797 44.31148146 4939 239 0 1.00000000 1.00000000 1.00000000
H 23.24822149 3.47720559 44.52645066 4940 239 0 1.00000000 1.00000000 1.00000000
H 24.21956773 4.75948985 45.38758988 4941 239 0 1.00000000 1.00000000 1.00000000
H 25.30340486 5.03132638 43.37262639 4942 239 0 1.00000000 1.00000000 1.00000000
H 23.77076058 5.98472888 43.06230179 4943 239 0 1.00000000 1.00000000 1.00000000
H 22.84954180 3.77689004 42.15428819 4944 239 0 1.00000000 1.00000000 1.00000000
H 24.50798190 3.29360543 41.86877439 4945 239 0 1.00000000 1.00000000 1.00000000
H 24.81797090 5.11388774 40.21037563 4946 239 0 1.00000000 1.00000000 1.00000000
H 23.43495839 6.01406668 40.91465947 4947 239 0 1.00000000 1.00000000 1.00000000
H 23.41164898 3.18303501 39.56595745 4948 239 0 1.00000000 1.00000000 1.00000000
H 22.91258571 4.51754269 38.66396409 4949 239 0 1.00000000 1.00000000 1.00000000
H 21.96545707 4.08052505 40.13156728 4950 239 0 1.00000000 1.00000000 1.00000000
C 44.57965357 13.77206925 34.29607520 4951 240 0 0.56500000 0.56500000 0.56500000
C 44.45368318 15.28497218 34.37399751 4952 240 0 0.56500000 0.56500000 0.56500000
C 45.72049161 16.05434808 34.04113983 4953 240 0 0.56500000 0.56500000 0.56500000
C 45.43403383 17.60697034 33.95591563 4954 240 0 0.56500000 0.56500000 0.56500000
C 46.74137442 18.34017963 33.69507153 4955 240 0 0.56500000 0.56500000 0.56500000
C 46.81506301 19.81812432 33.32646830 4956 240 0 0.56500000 0.56500000 0.56500000
C 48.31835089 20.22726726 33.28300367 4957 240 0 0.56500000 0.56500000 0.56500000
H 45.36525213 13.53486879 35.02710345 4958 240 0 1.00000000 1.00000000 1.00000000
H 44.79740684 13.34758255 33.31136104 4959 240 0 1.00000000 1.00000000 1.00000000
H 43.67345500 13.22531587 34.65964762 4960 240 0 1.00000000 1.00000000 1.00000000
H 44.06250807 15.71529922 35.32128036 4961 240 0 1.00000000 1.00000000 1.00000000
H 43.73220349 15.66432645 33.65491900 4962 240 0 1.00000000 1.00000000 1.00000000
H 45.89695422 15.73738963 33.02192765 4963 240 0 1.00000000 1.00000000 1.00000000
H 46.58520780 15.94745862 34.67332744 4964 240 0 1.00000000 1.00000000 1.00000000
H 44.91144847 18.09977919 34.82577719 4965 240 0 1.00000000 1.00000000 1.00000000
H 44.68838438 17.62808530 33.17393421 4966 240 0 1.00000000 1.00000000 1.00000000
H 47.36301730 17.80771472 32.98801670 4967 240 0 1.00000000 1.00000000 1.00000000
H 47.24224421 18.18528226 34.65656841 4968 240 0 1.00000000 1.00000000 1.00000000
H 46.30614863 20.38183912 34.17498804 4969 240 0 1.00000000 1.00000000 1.00000000
H 46.10039009 20.13313389 32.61591281 4970 240 0 1.00000000 1.00000000 1.00000000
H 48.90013914 19.34951344 33.09659663 4971 240 0 1.00000000 1.00000000 1.00000000
H 48.71694455 20.77756067 34.19539857 4972 240 0 1.00000000 1.00000000 1.00000000
H 48.59360655 20.96943042 32.57203016 4973 240 0 1.00000000 1.00000000 1.00000000
C 16.23675891 18.53228302 17.54400502 4974 241 0 0.56500000 0.56500000 0.56500000
C 15.72592564 19.52201944 18.55606432 4975 241 0 0.56500000 0.56500000 0.56500000
C 14.65809722 18.89344559 19.55292779 4976 241 0 0.56500000 0.56500000 0.56500000
C 13.51322385 18.01972528 18.99328028 4977 241 0 0.56500000 0.56500000 0.56500000
C 12.72231255 17.29015196 20.12095909 4978 241 0 0.56500000 0.56500000 0.56500000
C 11.45617161 16.66247120 19.63564940 4979 241 0 0.56500000 0.56500000 0.56500000
C 10.46745566 16.45561813 20.78429518 4980 241 0 0.56500000 0.56500000 0.56500000
H 17.18507806 18.98637151 17.26781109 4981 241 0 1.00000000 1.00000000 1.00000000
H 15.55709946 18.32753781 16.73397509 4982 241 0 1.00000000 1.00000000 1.00000000
H 16.62583314 17.50396908 18.00620567 4983 241 0 1.00000000 1.00000000 1.00000000
H 15.17716245 20.33184852 17.95884366 4984 241 0 1.00000000 1.00000000 1.00000000
H 16.57792608 20.07346580 19.06747599 4985 241 0 1.00000000 1.00000000 1.00000000
H 14.37717303 19.65864940 20.25123755 4986 241 0 1.00000000 1.00000000 1.00000000
H 15.25212322 18.21364995 20.15212970 4987 241 0 1.00000000 1.00000000 1.00000000
H 13.88218925 17.33432148 18.26082986 4988 241 0 1.00000000 1.00000000 1.00000000
H 12.88352154 18.60013563 18.39993210 4989 241 0 1.00000000 1.00000000 1.00000000
H 12.57896448 18.03975119 20.95821850 4990 241 0 1.00000000 1.00000000 1.00000000
H 13.36554979 16.49689918 20.56083406 4991 241 0 1.00000000 1.00000000 1.00000000
H 11.82805513 15.74650141 19.12364637 4992 241 0 1.00000000 1.00000000 1.00000000
H 10.98493210 17.16024757 18.82407490 4993 241 0 1.00000000 1.00000000 1.00000000
H 9.43940815 16.17263481 20.50683708 4994 241 0 1.00000000 1.00000000 1.00000000
H 10.33032645 17.42077300 21.35394411 4995 241 0 1.00000000 1.00000000 1.00000000
H 10.65704097 15.64866185 21.52488482 4996 241 0 1.00000000 1.00000000 1.00000000
C 36.68359695 49.15006768 21.06233882 4997 242 0 0.56500000 0.56500000 0.56500000
C 35.77819245 50.31659544 20.60267839 4998 242 0 0.56500000 0.56500000 0.56500000
C 35.13414708 50.12569620 19.25471948 4999 242 0 0.56500000 0.56500000 0.56500000
C 34.69388145 51.46472074 18.70405301 5000 242 0 0.56500000 0.56500000 0.56500000
C 34.02020036 51.46376732 17.32191607 5001 242 0 0.56500000 0.56500000 0.56500000
C 34.82828225 50.99836137 16.14862632 5002 242 0 0.56500000 0.56500000 0.56500000
C 33.98766268 50.68414749 14.88040104 5003 242 0 0.56500000 0.56500000 0.56500000
H 36.13984008 48.23185497 21.32793120 5004 242 0 1.00000000 1.00000000 1.00000000
H 37.23385960 49.41021666 21.98673147 5005 242 0 1.00000000 1.00000000 1.00000000
H 37.45670477 48.92747417 20.24580969 5006 242 0 1.00000000 1.00000000 1.00000000
H 36.39484488 51.18182086 20.57515533 5007 242 0 1.00000000 1.00000000 1.00000000
H 35.11179094 50.49402171 21.46897649 5008 242 0 1.00000000 1.00000000 1.00000000
H 34.33109797 49.42254618 19.26037573 5009 242 0 1.00000000 1.00000000 1.00000000
H 35.92093775 49.73826253 18.56392665 5010 242 0 1.00000000 1.00000000 1.00000000
H 35.59833294 52.05929918 18.64421205 5011 242 0 1.00000000 1.00000000 1.00000000
H 33.93363212 51.90861770 19.41991933 5012 242 0 1.00000000 1.00000000 1.00000000
H 33.65428335 52.45799857 17.13255903 5013 242 0 1.00000000 1.00000000 1.00000000
H 33.18082646 50.75984500 17.47405568 5014 242 0 1.00000000 1.00000000 1.00000000
H 35.34382438 50.09306464 16.39392903 5015 242 0 1.00000000 1.00000000 1.00000000
H 35.56286268 51.73622485 15.84327514 5016 242 0 1.00000000 1.00000000 1.00000000
H 33.23412527 49.86937474 15.02588147 5017 242 0 1.00000000 1.00000000 1.00000000
H 34.65209119 50.34535561 14.07942532 5018 242 0 1.00000000 1.00000000 1.00000000
H 33.42615366 51.48610409 14.53989413 5019 242 0 1.00000000 1.00000000 1.00000000
C 42.97629583 28.04131075 34.52992957 5020 243 0 0.56500000 0.56500000 0.56500000
C 44.40890316 28.62082737 34.48307546 5021 243 0 0.56500000 0.56500000 0.56500000
C 45.01953318 28.68845987 35.87782591 5022 243 0 0.56500000 0.56500000 0.56500000
C 46.57657664 28.61006570 36.02557960 5023 243 0 0.56500000 0.56500000 0.56500000
C 47.25065870 29.68669001 35.17639093 5024 243 0 0.56500000 0.56500000 0.56500000
C 48.74711287 29.82488051 35.42459799 5025 243 0 0.56500000 0.56500000 0.56500000
C 49.64972700 28.59281967 35.24908341 5026 243 0 0.56500000 0.56500000 0.56500000
H 42.30540460 28.80358549 35.01077585 5027 243 0 1.00000000 1.00000000 1.00000000
H 42.91098394 27.20771283 35.21500587 5028 243 0 1.00000000 1.00000000 1.00000000
H 42.54502865 27.75336268 33.55124070 5029 243 0 1.00000000 1.00000000 1.00000000
H 44.46248714 29.57961089 33.94007170 5030 243 0 1.00000000 1.00000000 1.00000000
H 45.12085155 27.95032869 33.94137233 5031 243 0 1.00000000 1.00000000 1.00000000
H 44.60046717 27.81393530 36.45870811 5032 243 0 1.00000000 1.00000000 1.00000000
H 44.52056345 29.47097271 36.56082161 5033 243 0 1.00000000 1.00000000 1.00000000
H 47.02150393 27.66062947 35.77631138 5034 243 0 1.00000000 1.00000000 1.00000000
H 46.68695689 28.84700304 37.11376799 5035 243 0 1.00000000 1.00000000 1.00000000
H 46.84919612 30.66759377 35.45362018 5036 243 0 1.00000000 1.00000000 1.00000000
H 47.14867198 29.49908756 34.10197408 5037 243 0 1.00000000 1.00000000 1.00000000
H 48.88744854 30.19281143 36.44129994 5038 243 0 1.00000000 1.00000000 1.00000000
H 49.10452432 30.64983492 34.73510639 5039 243 0 1.00000000 1.00000000 1.00000000
H 50.60694985 28.67850205 35.69930088 5040 243 0 1.00000000 1.00000000 1.00000000
H 49.79149016 28.24921997 34.24952404 5041 243 0 1.00000000 1.00000000 1.00000000
H 49.10901897 27.81244502 35.83660506 5042 243 0 1.00000000 1.00000000 1.00000000
C 38.95760470 44.46242489 19.18597614 5043 244 0 0.56500000 0.56500000 0.56500000
C 38.02372349 45.66319813 19.15591180 5044 244 0 0.56500000 0.56500000 0.56500000
C 37.36606099 45.79203402 17.78362801 5045 244 0 0.56500000 0.56500000 0.56500000
C 38.24543583 45.94384151 16.58824081 5046 244 0 0.56500000 0.56500000 0.56500000
C 39.00574316 47.25923122 16.56365729 5047 244 0 0.56500000 0.56500000 0.56500000
C 39.72898981 47.40372402 15.26898443 5048 244 0 0.56500000 0.56500000 0.56500000
C 40.93346170 46.46604768 15.05602433 5049 244 0 0.56500000 0.56500000 0.56500000
H 38.64994417 43.69280891 18.46868999 5050 244 0 1.00000000 1.00000000 1.00000000
H 39.01044525 44.05874305 20.20577576 5051 244 0 1.00000000 1.00000000 1.00000000
H 39.98680945 44.65089206 18.84869326 5052 244 0 1.00000000 1.00000000 1.00000000
H 38.59629706 46.46628626 19.57048506 5053 244 0 1.00000000 1.00000000 1.00000000
H 37.15634740 45.50796568 19.80605965 5054 244 0 1.00000000 1.00000000 1.00000000
H 36.65287140 46.63315292 17.85619217 5055 244 0 1.00000000 1.00000000 1.00000000
H 36.76744736 44.85744882 17.55296437 5056 244 0 1.00000000 1.00000000 1.00000000
H 37.53550927 45.99829702 15.71954493 5057 244 0 1.00000000 1.00000000 1.00000000
H 38.90942080 45.06474227 16.48783867 5058 244 0 1.00000000 1.00000000 1.00000000
H 39.80969646 47.08298835 17.27204151 5059 244 0 1.00000000 1.00000000 1.00000000
H 38.40885763 48.11971025 16.87983791 5060 244 0 1.00000000 1.00000000 1.00000000
H 40.00426289 48.44829770 15.06811498 5061 244 0 1.00000000 1.00000000 1.00000000
H 39.07167461 47.30493203 14.43097463 5062 244 0 1.00000000 1.00000000 1.00000000
H 40.56581845 45.38528555 15.02655274 5063 244 0 1.00000000 1.00000000 1.00000000
H 41.60803807 46.57671363 15.94585102 5064 244 0 1.00000000 1.00000000 1.00000000
H 41.47461547 46.69464778 14.14337117 5065 244 0 1.00000000 1.00000000 1.00000000
C 35.92021460 4.38226313 3.65571907 5066 245 0 0.56500000 0.56500000 0.56500000
C 35.52902403 5.65532099 2.85142522 5067 245 0 0.56500000 0.56500000 0.56500000
C 35.18649404 6.85636759 3.72447337 5068 245 0 0.56500000 0.56500000 0.56500000
C 35.11819413 8.27177493 3.17912461 5069 245 0 0.56500000 0.56500000 0.56500000
C 34.05532606 8.36153161 2.04299761 5070 245 0 0.56500000 0.56500000 0.56500000
C 33.70235884 9.85001635 1.65703310 5071 245 0 0.56500000 0.56500000 0.56500000
C 32.99761638 10.72616671 2.65448288 5072 245 0 0.56500000 0.56500000 0.56500000
H 35.85720996 3.49228724 2.87083595 5073 245 0 1.00000000 1.00000000 1.00000000
H 35.17878386 4.20479922 4.46233162 5074 245 0 1.00000000 1.00000000 1.00000000
H 36.98103250 4.48926402 4.11989830 5075 245 0 1.00000000 1.00000000 1.00000000
H 34.60994849 5.38418263 2.34165925 5076 245 0 1.00000000 1.00000000 1.00000000
H 36.32015890 5.92292656 2.08436773 5077 245 0 1.00000000 1.00000000 1.00000000
H 35.94982954 6.88535471 4.48655069 5078 245 0 1.00000000 1.00000000 1.00000000
H 34.31442316 6.61456050 4.28402567 5079 245 0 1.00000000 1.00000000 1.00000000
H 36.14489182 8.45691216 2.85929712 5080 245 0 1.00000000 1.00000000 1.00000000
H 34.79850597 8.85266533 4.05067129 5081 245 0 1.00000000 1.00000000 1.00000000
H 33.23043613 7.79622437 2.51834095 5082 245 0 1.00000000 1.00000000 1.00000000
H 34.32462625 7.77937855 1.18271427 5083 245 0 1.00000000 1.00000000 1.00000000
H 33.16151529 9.81473758 0.69420633 5084 245 0 1.00000000 1.00000000 1.00000000
H 34.68777414 10.26779829 1.39538589 5085 245 0 1.00000000 1.00000000 1.00000000
H 33.03163470 11.75491103 2.39958098 5086 245 0 1.00000000 1.00000000 1.00000000
H 33.29080185 10.68379979 3.71136034 5087 245 0 1.00000000 1.00000000 1.00000000
H 31.95852660 10.42194582 2.68493944 5088 245 0 1.00000000 1.00000000 1.00000000
C 33.17691161 10.22529394 16.57452281 5089 246 0 0.56500000 0.56500000 0.56500000
C 33.22530012 9.07272544 15.60957957 5090 246 0 0.56500000 0.56500000 0.56500000
C 34.38486133 9.15281043 14.60866286 5091 246 0 0.56500000 0.56500000 0.56500000
C 34.37129398 10.22505554 13.56009280 5092 246 0 0.56500000 0.56500000 0.56500000
C 35.41253973 10.07168641 12.47368722 5093 246 0 0.56500000 0.56500000 0.56500000
C 34.95884198 10.78621773 11.22161030 5094 246 0 0.56500000 0.56500000 0.56500000
C 33.81512032 9.98972985 10.56979872 5095 246 0 0.56500000 0.56500000 0.56500000
H 32.65652090 9.97040839 17.50344975 5096 246 0 1.00000000 1.00000000 1.00000000
H 32.66415161 11.14705494 16.22602973 5097 246 0 1.00000000 1.00000000 1.00000000
H 34.13393255 10.56465813 16.80222557 5098 246 0 1.00000000 1.00000000 1.00000000
H 32.31875886 8.84002336 14.96022463 5099 246 0 1.00000000 1.00000000 1.00000000
H 33.35837537 8.16313205 16.19419755 5100 246 0 1.00000000 1.00000000 1.00000000
H 34.41215725 8.16343424 14.12383785 5101 246 0 1.00000000 1.00000000 1.00000000
H 35.37096293 9.19955299 15.06276070 5102 246 0 1.00000000 1.00000000 1.00000000
H 34.54578000 11.23120230 14.04228427 5103 246 0 1.00000000 1.00000000 1.00000000
H 33.42122017 10.38174463 13.06681787 5104 246 0 1.00000000 1.00000000 1.00000000
H 35.60605601 9.01009667 12.33537184 5105 246 0 1.00000000 1.00000000 1.00000000
H 36.37708915 10.45006739 12.81822923 5106 246 0 1.00000000 1.00000000 1.00000000
H 35.78724669 10.76715884 10.53939460 5107 246 0 1.00000000 1.00000000 1.00000000
H 34.66129811 11.79952369 11.45024705 5108 246 0 1.00000000 1.00000000 1.00000000
H 32.96111896 10.21904917 11.16761172 5109 246 0 1.00000000 1.00000000 1.00000000
H 34.00620163 8.97138774 10.41923770 5110 246 0 1.00000000 1.00000000 1.00000000
H 33.51899052 10.26334535 9.55772635 5111 246 0 1.00000000 1.00000000 1.00000000
C 26.52916004 53.44414259 11.20401915 5112 247 0 0.56500000 0.56500000 0.56500000
C 27.17455059 53.09179922 12.48814719 5113 247 0 0.56500000 0.56500000 0.56500000
C 27.38528204 51.57712721 12.52686847 5114 247 0 0.56500000 0.56500000 0.56500000
C 27.98069990 51.10192529 13.88912899 5115 247 0 0.56500000 0.56500000 0.56500000
C 28.56639401 49.68849918 13.68532132 5116 247 0 0.56500000 0.56500000 0.56500000
C 29.66057908 49.31041307 14.68670553 5117 247 0 0.56500000 0.56500000 0.56500000
C 30.08136380 47.88614902 14.40102298 5118 247 0 0.56500000 0.56500000 0.56500000
H 26.11895105 54.44642799 11.12637590 5119 247 0 1.00000000 1.00000000 1.00000000
H 25.64498033 52.84828651 11.08148195 5120 247 0 1.00000000 1.00000000 1.00000000
H 27.26334034 53.14536358 10.44206077 5121 247 0 1.00000000 1.00000000 1.00000000
H 26.56765682 53.30688338 13.41050164 5122 247 0 1.00000000 1.00000000 1.00000000
H 28.16155936 53.56706218 12.63836775 5123 247 0 1.00000000 1.00000000 1.00000000
H 28.11264806 51.28159617 11.71368519 5124 247 0 1.00000000 1.00000000 1.00000000
H 26.35090369 51.14385960 12.47022591 5125 247 0 1.00000000 1.00000000 1.00000000
H 27.26702918 51.02613273 14.75022628 5126 247 0 1.00000000 1.00000000 1.00000000
H 28.79643561 51.78595517 14.24433296 5127 247 0 1.00000000 1.00000000 1.00000000
H 29.05430211 49.67350533 12.66956384 5128 247 0 1.00000000 1.00000000 1.00000000
H 27.83264245 48.83008595 13.71667447 5129 247 0 1.00000000 1.00000000 1.00000000
H 29.15467343 49.37590260 15.64359612 5130 247 0 1.00000000 1.00000000 1.00000000
H 30.48979735 50.00844710 14.69840443 5131 247 0 1.00000000 1.00000000 1.00000000
H 30.90352495 47.39593448 14.92990035 5132 247 0 1.00000000 1.00000000 1.00000000
H 30.35842834 47.86741918 13.36562369 5133 247 0 1.00000000 1.00000000 1.00000000
H 29.20633814 47.22106939 14.51744292 5134 247 0 1.00000000 1.00000000 1.00000000
C 15.68739726 17.84591516 1.58572768 5135 248 0 0.56500000 0.56500000 0.56500000
C 15.74912901 17.22677832 3.02986016 5136 248 0 0.56500000 0.56500000 0.56500000
C 14.82015237 17.97608547 4.03082010 5137 248 0 0.56500000 0.56500000 0.56500000
C 14.90313643 17.48521438 5.45980470 5138 248 0 0.56500000 0.56500000 0.56500000
C 13.66306716 17.53308679 6.25086476 5139 248 0 0.56500000 0.56500000 0.56500000
C 14.02936934 17.36289485 7.69280327 5140 248 0 0.56500000 0.56500000 0.56500000
C 14.30625907 15.89382345 8.14328311 5141 248 0 0.56500000 0.56500000 0.56500000
H 16.38192954 17.26017582 0.88918414 5142 248 0 1.00000000 1.00000000 1.00000000
H 16.16389976 18.83318355 1.55581734 5143 248 0 1.00000000 1.00000000 1.00000000
H 14.66285530 17.90670063 1.08132196 5144 248 0 1.00000000 1.00000000 1.00000000
H 16.81217567 17.36280015 3.36909158 5145 248 0 1.00000000 1.00000000 1.00000000
H 15.42497920 16.18380142 3.02996970 5146 248 0 1.00000000 1.00000000 1.00000000
H 13.80685530 17.78818743 3.72326469 5147 248 0 1.00000000 1.00000000 1.00000000
H 14.95624529 19.02308485 4.01618484 5148 248 0 1.00000000 1.00000000 1.00000000
H 15.57770501 18.20363818 5.94716250 5149 248 0 1.00000000 1.00000000 1.00000000
H 15.39249575 16.42131279 5.43838731 5150 248 0 1.00000000 1.00000000 1.00000000
H 12.87146356 16.80749244 6.01689271 5151 248 0 1.00000000 1.00000000 1.00000000
H 13.23773922 18.55496679 6.11176607 5152 248 0 1.00000000 1.00000000 1.00000000
H 13.11071101 17.64431445 8.25329132 5153 248 0 1.00000000 1.00000000 1.00000000
H 14.86121683 18.02978143 8.05526004 5154 248 0 1.00000000 1.00000000 1.00000000
H 14.48294278 16.00307602 9.27408737 5155 248 0 1.00000000 1.00000000 1.00000000
H 15.18587583 15.28363637 7.65568798 5156 248 0 1.00000000 1.00000000 1.00000000
H 13.51729547 15.12558376 8.05328208 5157 248 0 1.00000000 1.00000000 1.00000000
C 46.27110582 21.93549892 30.72228790 5158 249 0 0.56500000 0.56500000 0.56500000
C 46.07317084 22.72832242 29.37326945 5159 249 0 0.56500000 0.56500000 0.56500000
C 46.72542460 24.08119007 29.39312983 5160 249 0 0.56500000 0.56500000 0.56500000
C 46.43315152 24.92771041 28.20642560 5161 249 0 0.56500000 0.56500000 0.56500000
C 46.89838998 26.34979879 28.33235377 5162 249 0 0.56500000 0.56500000 0.56500000
C 48.47633969 26.43511570 28.32595705 5163 249 0 0.56500000 0.56500000 0.56500000
C 49.06277050 27.81185171 28.19550711 5164 249 0 0.56500000 0.56500000 0.56500000
H 45.59745101 21.07163667 30.78777204 5165 249 0 1.00000000 1.00000000 1.00000000
H 46.07830315 22.61668650 31.59726909 5166 249 0 1.00000000 1.00000000 1.00000000
H 47.31592028 21.57376040 30.79274292 5167 249 0 1.00000000 1.00000000 1.00000000
H 45.00192094 22.82278668 29.30439477 5168 249 0 1.00000000 1.00000000 1.00000000
H 46.18966179 22.09405074 28.52603705 5169 249 0 1.00000000 1.00000000 1.00000000
H 47.88712314 24.06800459 29.63298162 5170 249 0 1.00000000 1.00000000 1.00000000
H 46.25523548 24.59357245 30.28891508 5171 249 0 1.00000000 1.00000000 1.00000000
H 45.38591811 24.73855674 28.00424078 5172 249 0 1.00000000 1.00000000 1.00000000
H 46.97951995 24.52398605 27.31427694 5173 249 0 1.00000000 1.00000000 1.00000000
H 46.47329584 26.90733710 29.19315837 5174 249 0 1.00000000 1.00000000 1.00000000
H 46.63635726 26.95850790 27.45608304 5175 249 0 1.00000000 1.00000000 1.00000000
H 48.85673550 25.89319923 27.44780366 5176 249 0 1.00000000 1.00000000 1.00000000
H 48.92891983 26.00024883 29.20389218 5177 249 0 1.00000000 1.00000000 1.00000000
H 48.81488030 28.32493446 27.28270697 5178 249 0 1.00000000 1.00000000 1.00000000
H 50.20255463 27.77816086 28.13504393 5179 249 0 1.00000000 1.00000000 1.00000000
H 48.91164608 28.47586148 29.09605510 5180 249 0 1.00000000 1.00000000 1.00000000
C 30.93598818 34.49501884 15.95479460 5181 250 0 0.56500000 0.56500000 0.56500000
C 29.46402724 34.14877761 15.99910113 5182 250 0 0.56500000 0.56500000 0.56500000
C 29.06217909 32.76700635 15.45791826 5183 250 0 0.56500000 0.56500000 0.56500000
C 27.55699742 32.60808657 15.42317594 5184 250 0 0.56500000 0.56500000 0.56500000
C 26.74084375 33.68218523 14.74348112 5185 250 0 0.56500000 0.56500000 0.56500000
C 25.31626192 33.29981168 14.50405017 5186 250 0 0.56500000 0.56500000 0.56500000
C 24.52771893 34.46716595 13.92510270 5187 250 0 0.56500000 0.56500000 0.56500000
H 31.32213293 34.68635595 14.98698820 5188 250 0 1.00000000 1.00000000 1.00000000
H 31.54056289 33.61355514 16.32907361 5189 250 0 1.00000000 1.00000000 1.00000000
H 31.15447169 35.32844029 16.64680185 5190 250 0 1.00000000 1.00000000 1.00000000
H 29.06413318 35.02426143 15.40255624 5191 250 0 1.00000000 1.00000000 1.00000000
H 29.12908036 34.32722164 17.04943247 5192 250 0 1.00000000 1.00000000 1.00000000
H 29.51947309 32.04525642 16.12863990 5193 250 0 1.00000000 1.00000000 1.00000000
H 29.41532637 32.77972333 14.44750301 5194 250 0 1.00000000 1.00000000 1.00000000
H 27.18188881 32.55380040 16.43621661 5195 250 0 1.00000000 1.00000000 1.00000000
H 27.25087396 31.71410246 14.93303837 5196 250 0 1.00000000 1.00000000 1.00000000
H 27.19628067 33.92160325 13.71455642 5197 250 0 1.00000000 1.00000000 1.00000000
H 26.76731024 34.62727042 15.29764424 5198 250 0 1.00000000 1.00000000 1.00000000
H 24.76340436 33.12380193 15.42925245 5199 250 0 1.00000000 1.00000000 1.00000000
H 25.23321149 32.36632460 13.85569406 5200 250 0 1.00000000 1.00000000 1.00000000
H 24.97252884 34.87085501 13.01101667 5201 250 0 1.00000000 1.00000000 1.00000000
H 24.44261292 35.38138763 14.57568766 5202 250 0 1.00000000 1.00000000 1.00000000
H 23.49002429 34.15289924 13.72267750 5203 250 0 1.00000000 1.00000000 1.00000000
C 43.79227075 39.11141629 34.51715937 5204 251 0 0.56500000 0.56500000 0.56500000
C 43.24412676 40.40852854 35.02259798 5205 251 0 0.56500000 0.56500000 0.56500000
C 42.91798220 40.40218298 36.50758969 5206 251 0 0.56500000 0.56500000 0.56500000
C 42.48344509 41.71134214 37.21208598 5207 251 0 0.56500000 0.56500000 0.56500000
C 42.14672741 41.38902057 38.63727445 5208 251 0 0.56500000 0.56500000 0.56500000
C 41.74246302 42.66039642 39.40757619 5209 251 0 0.56500000 0.56500000 0.56500000
C 40.37909246 43.29980627 39.15844915 5210 251 0 0.56500000 0.56500000 0.56500000
H 44.64808860 38.67443009 35.17655831 5211 251 0 1.00000000 1.00000000 1.00000000
H 44.30416354 39.28128717 33.54765546 5212 251 0 1.00000000 1.00000000 1.00000000
H 42.98280702 38.40080202 34.35497040 5213 251 0 1.00000000 1.00000000 1.00000000
H 42.31362796 40.58423314 34.55464078 5214 251 0 1.00000000 1.00000000 1.00000000
H 43.90429786 41.25449834 34.85202333 5215 251 0 1.00000000 1.00000000 1.00000000
H 43.79755827 39.91032739 36.93555376 5216 251 0 1.00000000 1.00000000 1.00000000
H 42.14556988 39.69021529 36.63090374 5217 251 0 1.00000000 1.00000000 1.00000000
H 41.56186581 42.09541248 36.68459137 5218 251 0 1.00000000 1.00000000 1.00000000
H 43.29486828 42.41862461 37.10896225 5219 251 0 1.00000000 1.00000000 1.00000000
H 42.96515783 40.82288309 39.10553795 5220 251 0 1.00000000 1.00000000 1.00000000
H 41.41720783 40.56931227 38.65719172 5221 251 0 1.00000000 1.00000000 1.00000000
H 42.58025644 43.37642229 39.21337101 5222 251 0 1.00000000 1.00000000 1.00000000
H 41.67499403 42.37826482 40.44506951 5223 251 0 1.00000000 1.00000000 1.00000000
H 40.18915354 44.16445274 39.81546158 5224 251 0 1.00000000 1.00000000 1.00000000
H 39.51255709 42.54777432 39.36986849 5225 251 0 1.00000000 1.00000000 1.00000000
H 40.29837627 43.66908405 38.14178853 5226 251 0 1.00000000 1.00000000 1.00000000
C 32.28827538 32.57346735 19.29257713 5227 252 0 0.56500000 0.56500000 0.56500000
C 32.13091614 34.09288538 19.26675653 5228 252 0 0.56500000 0.56500000 0.56500000
C 30.81669553 34.54150506 19.87325640 5229 252 0 0.56500000 0.56500000 0.56500000
C 30.74819690 36.01877665 20.26356566 5230 252 0 0.56500000 0.56500000 0.56500000
C 29.37217894 36.38566090 20.86350105 5231 252 0 0.56500000 0.56500000 0.56500000
C 29.12218706 37.83191015 21.11710947 5232 252 0 0.56500000 0.56500000 0.56500000
C 28.67298386 38.69311260 19.97651580 5233 252 0 0.56500000 0.56500000 0.56500000
H 33.38503165 32.29959925 19.21351429 5234 252 0 1.00000000 1.00000000 1.00000000
H 31.88469562 32.15345106 18.37142523 5235 252 0 1.00000000 1.00000000 1.00000000
H 31.88152277 32.13216397 20.15792413 5236 252 0 1.00000000 1.00000000 1.00000000
H 32.25089848 34.43109853 18.28084433 5237 252 0 1.00000000 1.00000000 1.00000000
H 32.95251198 34.53034813 19.95251191 5238 252 0 1.00000000 1.00000000 1.00000000
H 30.69109921 33.97114776 20.82990799 5239 252 0 1.00000000 1.00000000 1.00000000
H 29.93788822 34.27490742 19.28867081 5240 252 0 1.00000000 1.00000000 1.00000000
H 30.93273430 36.61734415 19.39892202 5241 252 0 1.00000000 1.00000000 1.00000000
H 31.46955422 36.25336649 21.03817548 5242 252 0 1.00000000 1.00000000 1.00000000
H 29.13255353 35.75779877 21.70863658 5243 252 0 1.00000000 1.00000000 1.00000000
H 28.61425568 36.06569032 20.10944275 5244 252 0 1.00000000 1.00000000 1.00000000
H 30.04890401 38.21258703 21.52646127 5245 252 0 1.00000000 1.00000000 1.00000000
H 28.35143602 37.80165581 21.90978140 5246 252 0 1.00000000 1.00000000 1.00000000
H 29.41609717 38.85340029 19.13912991 5247 252 0 1.00000000 1.00000000 1.00000000
H 28.49081985 39.70160141 20.26096855 5248 252 0 1.00000000 1.00000000 1.00000000
H 27.86431950 38.17063764 19.46225580 5249 252 0 1.00000000 1.00000000 1.00000000
C 23.16909523 41.87594083 -1.71324346 5250 253 0 0.56500000 0.56500000 0.56500000
C 23.11498073 41.89059626 -0.19673744 5251 253 0 0.56500000 0.56500000 0.56500000
C 22.22448441 43.02720921 0.22695053 5252 253 0 0.56500000 0.56500000 0.56500000
C 21.79809896 42.87349776 1.68409309 5253 253 0 0.56500000 0.56500000 0.56500000
C 20.94208125 44.06153053 2.09056774 5254 253 0 0.56500000 0.56500000 0.56500000
C 20.48422365 44.02387399 3.54502246 5255 253 0 0.56500000 0.56500000 0.56500000
C 19.45499522 45.15396018 3.89743973 5256 253 0 0.56500000 0.56500000 0.56500000
H 23.70319308 40.92530389 -2.05020574 5257 253 0 1.00000000 1.00000000 1.00000000
H 23.68535952 42.69086967 -2.13948465 5258 253 0 1.00000000 1.00000000 1.00000000
H 22.17399329 41.83348801 -2.16828135 5259 253 0 1.00000000 1.00000000 1.00000000
H 24.12231206 42.02787471 0.25290419 5260 253 0 1.00000000 1.00000000 1.00000000
H 22.76186426 40.92956849 0.23493671 5261 253 0 1.00000000 1.00000000 1.00000000
H 21.33898019 43.16886762 -0.36595610 5262 253 0 1.00000000 1.00000000 1.00000000
H 22.78742974 43.91172959 -0.02796669 5263 253 0 1.00000000 1.00000000 1.00000000
H 22.64546428 42.61394595 2.31885459 5264 253 0 1.00000000 1.00000000 1.00000000
H 21.12510281 41.98035001 1.62593053 5265 253 0 1.00000000 1.00000000 1.00000000
H 20.07418596 44.14516310 1.41023007 5266 253 0 1.00000000 1.00000000 1.00000000
H 21.57829589 44.93528244 2.03249357 5267 253 0 1.00000000 1.00000000 1.00000000
H 21.38047168 44.18682219 4.18228967 5268 253 0 1.00000000 1.00000000 1.00000000
H 20.08306676 43.09724843 3.86429084 5269 253 0 1.00000000 1.00000000 1.00000000
H 18.40101955 44.87792064 3.68330987 5270 253 0 1.00000000 1.00000000 1.00000000
H 19.73302811 46.03535931 3.27466207 5271 253 0 1.00000000 1.00000000 1.00000000
H 19.53503727 45.44271181 4.97660534 5272 253 0 1.00000000 1.00000000 1.00000000
C 22.32327451 16.61055113 20.12813873 5273 254 0 0.56500000 0.56500000 0.56500000
C 23.62873723 15.89970519 19.76343848 5274 254 0 0.56500000 0.56500000 0.56500000
C 24.64350118 16.78235085 19.03742985 5275 254 0 0.56500000 0.56500000 0.56500000
C 25.12423606 17.89464775 19.99348829 5276 254 0 0.56500000 0.56500000 0.56500000
C 26.32717571 18.75685845 19.49587117 5277 254 0 0.56500000 0.56500000 0.56500000
C 26.82033847 19.74870036 20.49909523 5278 254 0 0.56500000 0.56500000 0.56500000
C 27.82940720 20.74514269 19.97977872 5279 254 0 0.56500000 0.56500000 0.56500000
H 22.31309473 17.54824817 20.80697887 5280 254 0 1.00000000 1.00000000 1.00000000
H 21.69234437 15.86825622 20.68395234 5281 254 0 1.00000000 1.00000000 1.00000000
H 21.72679846 16.74840230 19.23111918 5282 254 0 1.00000000 1.00000000 1.00000000
H 23.41404183 15.02410157 19.11816161 5283 254 0 1.00000000 1.00000000 1.00000000
H 24.14873115 15.56725500 20.70989896 5284 254 0 1.00000000 1.00000000 1.00000000
H 24.15461610 17.33088095 18.25431820 5285 254 0 1.00000000 1.00000000 1.00000000
H 25.44487786 16.21234234 18.54183450 5286 254 0 1.00000000 1.00000000 1.00000000
H 25.40570044 17.44947157 20.93730801 5287 254 0 1.00000000 1.00000000 1.00000000
H 24.33862206 18.66360835 20.20169824 5288 254 0 1.00000000 1.00000000 1.00000000
H 25.97769160 19.40288603 18.67232158 5289 254 0 1.00000000 1.00000000 1.00000000
H 27.10527247 18.13019459 19.17822577 5290 254 0 1.00000000 1.00000000 1.00000000
H 27.21049672 19.10472415 21.31536997 5291 254 0 1.00000000 1.00000000 1.00000000
H 25.94706792 20.28791440 20.95453278 5292 254 0 1.00000000 1.00000000 1.00000000
H 27.57833504 21.14823833 19.00571634 5293 254 0 1.00000000 1.00000000 1.00000000
H 28.77711342 20.16555444 19.72988935 5294 254 0 1.00000000 1.00000000 1.00000000
H 28.03908639 21.46513523 20.75303024 5295 254 0 1.00000000 1.00000000 1.00000000
C 19.43625948 36.42822250 17.62436132 5296 255 0 0.56500000 0.56500000 0.56500000
C 19.96559225 37.75878184 18.19904928 5297 255 0 0.56500000 0.56500000 0.56500000
C 19.43657609 38.11318386 19.56825685 5298 255 0 0.56500000 0.56500000 0.56500000
C 19.60092700 39.51291919 20.12742409 5299 255 0 0.56500000 0.56500000 0.56500000
C 21.13084673 39.68214683 20.29615208 5300 255 0 0.56500000 0.56500000 0.56500000
C 21.68184368 41.10747271 20.62887221 5301 255 0 0.56500000 0.56500000 0.56500000
C 21.65249544 41.33712406 22.08475895 5302 255 0 0.56500000 0.56500000 0.56500000
H 18.39206508 36.57976339 17.37544402 5303 255 0 1.00000000 1.00000000 1.00000000
H 19.56433592 35.63362046 18.39553039 5304 255 0 1.00000000 1.00000000 1.00000000
H 19.90580906 36.02756704 16.71109507 5305 255 0 1.00000000 1.00000000 1.00000000
H 19.65042231 38.51334851 17.50616767 5306 255 0 1.00000000 1.00000000 1.00000000
H 21.10282425 37.80048660 18.17121479 5307 255 0 1.00000000 1.00000000 1.00000000
H 19.95124452 37.51562240 20.32428063 5308 255 0 1.00000000 1.00000000 1.00000000
H 18.30145153 37.89037596 19.56255060 5309 255 0 1.00000000 1.00000000 1.00000000
H 19.06969399 39.72016534 21.08228687 5310 255 0 1.00000000 1.00000000 1.00000000
H 19.33879123 40.23407551 19.39960187 5311 255 0 1.00000000 1.00000000 1.00000000
H 21.53639242 39.42957271 19.24531235 5312 255 0 1.00000000 1.00000000 1.00000000
H 21.54773946 38.99287633 21.01753178 5313 255 0 1.00000000 1.00000000 1.00000000
H 21.17074144 41.89787637 20.09129372 5314 255 0 1.00000000 1.00000000 1.00000000
H 22.70144533 41.16516931 20.27728834 5315 255 0 1.00000000 1.00000000 1.00000000
H 22.21887858 40.62712840 22.60503370 5316 255 0 1.00000000 1.00000000 1.00000000
H 20.62351622 41.24482226 22.51744331 5317 255 0 1.00000000 1.00000000 1.00000000
H 22.10562950 42.28483673 22.49697323 5318 255 0 1.00000000 1.00000000 1.00000000
C 33.04085476 5.38817983 17.13691366 5319 256 0 0.56500000 0.56500000 0.56500000
C 34.17942661 5.84421548 18.04572088 5320 256 0 0.56500000 0.56500000 0.56500000
C 35.52765756 5.51148584 17.46709514 5321 256 0 0.56500000 0.56500000 0.56500000
C 35.90198563 6.29157816 16.18847830 5322 256 0 0.56500000 0.56500000 0.56500000
C 37.26036045 5.88950108 15.60498269 5323 256 0 0.56500000 0.56500000 0.56500000
C 37.54987482 6.62814215 14.34561827 5324 256 0 0.56500000 0.56500000 0.56500000
C 38.99783789 6.81669682 13.86209327 5325 256 0 0.56500000 0.56500000 0.56500000
H 32.14456124 5.85039066 17.47256414 5326 256 0 1.00000000 1.00000000 1.00000000
H 32.94885439 4.30922460 17.11543157 5327 256 0 1.00000000 1.00000000 1.00000000
H 33.12495078 5.73663796 16.06231576 5328 256 0 1.00000000 1.00000000 1.00000000
H 34.06768575 5.38892583 19.00849690 5329 256 0 1.00000000 1.00000000 1.00000000
H 34.11831312 6.91945698 18.22657775 5330 256 0 1.00000000 1.00000000 1.00000000
H 35.45063354 4.48397831 17.13001323 5331 256 0 1.00000000 1.00000000 1.00000000
H 36.38366256 5.63210232 18.10592055 5332 256 0 1.00000000 1.00000000 1.00000000
H 35.92531634 7.34564597 16.34650254 5333 256 0 1.00000000 1.00000000 1.00000000
H 35.17459071 6.18318831 15.36178515 5334 256 0 1.00000000 1.00000000 1.00000000
H 37.23293302 4.78508539 15.36108169 5335 256 0 1.00000000 1.00000000 1.00000000
H 38.08720518 5.97290043 16.31870081 5336 256 0 1.00000000 1.00000000 1.00000000
H 37.17713689 7.63211345 14.48705293 5337 256 0 1.00000000 1.00000000 1.00000000
H 36.84360098 6.31717037 13.59489661 5338 256 0 1.00000000 1.00000000 1.00000000
H 39.00693750 7.43330511 12.92446123 5339 256 0 1.00000000 1.00000000 1.00000000
H 39.48806524 5.88730630 13.53031421 5340 256 0 1.00000000 1.00000000 1.00000000
H 39.65043161 7.28327340 14.62365106 5341 256 0 1.00000000 1.00000000 1.00000000
C 27.03916412 49.16084793 0.29076301 5342 257 0 0.56500000 0.56500000 0.56500000
C 25.80932444 49.89595440 0.84288901 5343 257 0 0.56500000 0.56500000 0.56500000
C 25.73258175 51.41110904 0.58805327 5344 257 0 0.56500000 0.56500000 0.56500000
C 24.76130628 52.17828082 1.48432999 5345 257 0 0.56500000 0.56500000 0.56500000
C 24.09830726 53.53231537 0.92357037 5346 257 0 0.56500000 0.56500000 0.56500000
C 22.62358209 53.66265908 1.00609528 5347 257 0 0.56500000 0.56500000 0.56500000
C 21.93201811 53.32539150 2.36155850 5348 257 0 0.56500000 0.56500000 0.56500000
H 27.06974801 49.16527963 -0.78391316 5349 257 0 1.00000000 1.00000000 1.00000000
H 27.12718571 48.18471876 0.75819266 5350 257 0 1.00000000 1.00000000 1.00000000
H 27.88390326 49.74079250 0.62504856 5351 257 0 1.00000000 1.00000000 1.00000000
H 26.02068870 49.75720175 1.93123013 5352 257 0 1.00000000 1.00000000 1.00000000
H 24.94557535 49.24458142 0.61243478 5353 257 0 1.00000000 1.00000000 1.00000000
H 25.41456737 51.49447094 -0.48641820 5354 257 0 1.00000000 1.00000000 1.00000000
H 26.75523874 51.80627900 0.61529418 5355 257 0 1.00000000 1.00000000 1.00000000
H 25.37266674 52.36624759 2.37004892 5356 257 0 1.00000000 1.00000000 1.00000000
H 23.98786242 51.49345040 1.87825284 5357 257 0 1.00000000 1.00000000 1.00000000
H 24.41531916 53.65187196 -0.13450389 5358 257 0 1.00000000 1.00000000 1.00000000
H 24.50296030 54.41585822 1.50871576 5359 257 0 1.00000000 1.00000000 1.00000000
H 22.13806880 53.03271753 0.22136436 5360 257 0 1.00000000 1.00000000 1.00000000
H 22.26963965 54.62173575 0.70396590 5361 257 0 1.00000000 1.00000000 1.00000000
H 20.84828286 53.36764181 2.24945378 5362 257 0 1.00000000 1.00000000 1.00000000
H 22.25004541 53.99495743 3.16282144 5363 257 0 1.00000000 1.00000000 1.00000000
H 22.19249441 52.23962622 2.62791272 5364 257 0 1.00000000 1.00000000 1.00000000
C 3.83238886 42.95929448 22.79753953 5365 258 0 0.56500000 0.56500000 0.56500000
C 2.37718230 43.29723546 23.10852735 5366 258 0 0.56500000 0.56500000 0.56500000
C 1.70694477 43.88462126 21.88369712 5367 258 0 0.56500000 0.56500000 0.56500000
C 0.22577359 44.22977357 22.22180626 5368 258 0 0.56500000 0.56500000 0.56500000
C -0.63440009 44.68687597 21.02845337 5369 258 0 0.56500000 0.56500000 0.56500000
C -2.09399390 44.65945364 21.43803295 5370 258 0 0.56500000 0.56500000 0.56500000
C -2.56238997 43.33964294 22.18399389 5371 258 0 0.56500000 0.56500000 0.56500000
H 3.96615889 42.33239938 21.87919820 5372 258 0 1.00000000 1.00000000 1.00000000
H 4.28983909 42.56570704 23.71016631 5373 258 0 1.00000000 1.00000000 1.00000000
H 4.34773313 43.91248429 22.68376770 5374 258 0 1.00000000 1.00000000 1.00000000
H 2.29653210 43.97587561 23.98279673 5375 258 0 1.00000000 1.00000000 1.00000000
H 1.73432346 42.41603224 23.36616925 5376 258 0 1.00000000 1.00000000 1.00000000
H 1.82040852 43.19545879 21.04043985 5377 258 0 1.00000000 1.00000000 1.00000000
H 2.20117794 44.79332683 21.58454448 5378 258 0 1.00000000 1.00000000 1.00000000
H 0.28520931 45.04968239 23.01444101 5379 258 0 1.00000000 1.00000000 1.00000000
H -0.26762621 43.31236341 22.57988468 5380 258 0 1.00000000 1.00000000 1.00000000
H -0.39477985 44.05595899 20.14619062 5381 258 0 1.00000000 1.00000000 1.00000000
H -0.35211892 45.69701620 20.68968942 5382 258 0 1.00000000 1.00000000 1.00000000
H -2.72274814 44.75141067 20.62567211 5383 258 0 1.00000000 1.00000000 1.00000000
H -2.46521998 45.54852426 22.06945667 5384 258 0 1.00000000 1.00000000 1.00000000
H -2.02507459 43.19803575 23.14753333 5385 258 0 1.00000000 1.00000000 1.00000000
H -2.32923762 42.51705758 21.42700589 5386 258 0 1.00000000 1.00000000 1.00000000
H -3.67452212 43.37468206 22.28542484 5387 258 0 1.00000000 1.00000000 1.00000000
C 5.69804673 26.37119985 14.65954393 5388 259 0 0.56500000 0.56500000 0.56500000
C 5.99429833 25.06876725 13.90086036 5389 259 0 0.56500000 0.56500000 0.56500000
C 4.84528219 24.22618265 13.33447422 5390 259 0 0.56500000 0.56500000 0.56500000
C 3.94658886 23.56673500 14.45179952 5391 259 0 0.56500000 0.56500000 0.56500000
C 2.94435941 22.48015358 13.93429016 5392 259 0 0.56500000 0.56500000 0.56500000
C 2.13764668 21.84937745 15.09423767 5393 259 0 0.56500000 0.56500000 0.56500000
C 0.89573706 21.00446292 14.77851989 5394 259 0 0.56500000 0.56500000 0.56500000
H 5.26918002 27.21579462 14.09891025 5395 259 0 1.00000000 1.00000000 1.00000000
H 6.61653474 26.75111940 15.08352450 5396 259 0 1.00000000 1.00000000 1.00000000
H 5.00660748 26.00350059 15.37618870 5397 259 0 1.00000000 1.00000000 1.00000000
H 6.59499750 24.43755895 14.52256452 5398 259 0 1.00000000 1.00000000 1.00000000
H 6.66173967 25.43158925 13.09328985 5399 259 0 1.00000000 1.00000000 1.00000000
H 5.10018347 23.48447392 12.64056653 5400 259 0 1.00000000 1.00000000 1.00000000
H 4.22693451 24.94286321 12.82084620 5401 259 0 1.00000000 1.00000000 1.00000000
H 3.38024694 24.40775089 14.95585541 5402 259 0 1.00000000 1.00000000 1.00000000
H 4.56626762 23.22449958 15.32747397 5403 259 0 1.00000000 1.00000000 1.00000000
H 3.65571733 21.76258888 13.41462343 5404 259 0 1.00000000 1.00000000 1.00000000
H 2.35683409 22.78031349 13.09260424 5405 259 0 1.00000000 1.00000000 1.00000000
H 1.83805190 22.64627049 15.70302216 5406 259 0 1.00000000 1.00000000 1.00000000
H 2.85352375 21.16430050 15.52644543 5407 259 0 1.00000000 1.00000000 1.00000000
H 0.44481924 20.69040797 15.67382513 5408 259 0 1.00000000 1.00000000 1.00000000
H 1.06537904 20.05050078 14.18452988 5409 259 0 1.00000000 1.00000000 1.00000000
H 0.30582328 21.63425396 14.15540248 5410 259 0 1.00000000 1.00000000 1.00000000
C 47.47731088 11.59111808 9.12348439 5411 260 0 0.56500000 0.56500000 0.56500000
C 47.11842376 10.93224902 10.45271471 5412 260 0 0.56500000 0.56500000 0.56500000
C 45.83042624 11.49801007 11.04035179 5413 260 0 0.56500000 0.56500000 0.56500000
C 45.55676717 10.89225067 12.41669830 5414 260 0 0.56500000 0.56500000 0.56500000
C 44.23118291 11.49093118 12.98152485 5415 260 0 0.56500000 0.56500000 0.56500000
C 44.01373063 10.98986084 14.47059431 5416 260 0 0.56500000 0.56500000 0.56500000
C 43.71799766 9.44565281 14.49818224 5417 260 0 0.56500000 0.56500000 0.56500000
H 48.25491940 11.00010278 8.64023720 5418 260 0 1.00000000 1.00000000 1.00000000
H 47.91298652 12.54260622 9.27814273 5419 260 0 1.00000000 1.00000000 1.00000000
H 46.56121783 11.68322877 8.47382985 5420 260 0 1.00000000 1.00000000 1.00000000
H 47.89151664 11.04915457 11.19403565 5421 260 0 1.00000000 1.00000000 1.00000000
H 46.86694038 9.88244191 10.30881895 5422 260 0 1.00000000 1.00000000 1.00000000
H 45.08367134 11.34447222 10.18962551 5423 260 0 1.00000000 1.00000000 1.00000000
H 46.00158141 12.55359305 11.30970999 5424 260 0 1.00000000 1.00000000 1.00000000
H 46.45636205 11.15223418 13.03539324 5425 260 0 1.00000000 1.00000000 1.00000000
H 45.55859809 9.82500242 12.32112271 5426 260 0 1.00000000 1.00000000 1.00000000
H 43.41342937 11.12463620 12.34813855 5427 260 0 1.00000000 1.00000000 1.00000000
H 44.27684558 12.53944427 12.98848302 5428 260 0 1.00000000 1.00000000 1.00000000
H 43.12150518 11.57849583 14.90619091 5429 260 0 1.00000000 1.00000000 1.00000000
H 44.84528838 11.38974454 15.09583425 5430 260 0 1.00000000 1.00000000 1.00000000
H 42.89001673 9.22625681 13.86416974 5431 260 0 1.00000000 1.00000000 1.00000000
H 43.42024676 9.15582021 15.51185137 5432 260 0 1.00000000 1.00000000 1.00000000
H 44.58218580 8.82988806 14.34895054 5433 260 0 1.00000000 1.00000000 1.00000000
C 13.95259100 1.92627446 19.21581024 5434 261 0 0.56500000 0.56500000 0.56500000
C 13.78717502 2.96509648 20.29309891 5435 261 0 0.56500000 0.56500000 0.56500000
C 12.46823288 3.64531874 20.21139833 5436 261 0 0.56500000 0.56500000 0.56500000
C 11.96693053 4.51892954 21.35529498 5437 261 0 0.56500000 0.56500000 0.56500000
C 10.51162838 4.94977938 21.04219423 5438 261 0 0.56500000 0.56500000 0.56500000
C 10.01270734 6.14882167 21.84153076 5439 261 0 0.56500000 0.56500000 0.56500000
C 10.11054831 5.94637419 23.34811533 5440 261 0 0.56500000 0.56500000 0.56500000
H 14.79486735 1.21637575 19.41181035 5441 261 0 1.00000000 1.00000000 1.00000000
H 14.20689069 2.23097601 18.15872071 5442 261 0 1.00000000 1.00000000 1.00000000
H 13.09215522 1.26557356 19.25659457 5443 261 0 1.00000000 1.00000000 1.00000000
H 14.56281600 3.67795612 20.13547241 5444 261 0 1.00000000 1.00000000 1.00000000
H 13.97138590 2.57530994 21.27023791 5445 261 0 1.00000000 1.00000000 1.00000000
H 11.68488461 2.87707565 20.08518416 5446 261 0 1.00000000 1.00000000 1.00000000
H 12.56194986 4.38601483 19.36602380 5447 261 0 1.00000000 1.00000000 1.00000000
H 12.57544537 5.44965758 21.36576741 5448 261 0 1.00000000 1.00000000 1.00000000
H 11.93383365 3.99431052 22.30849183 5449 261 0 1.00000000 1.00000000 1.00000000
H 9.94356402 4.07713501 21.27754009 5450 261 0 1.00000000 1.00000000 1.00000000
H 10.36967665 5.07042010 19.97838038 5451 261 0 1.00000000 1.00000000 1.00000000
H 8.94755149 6.33773855 21.55116361 5452 261 0 1.00000000 1.00000000 1.00000000
H 10.61805324 7.04994288 21.57803208 5453 261 0 1.00000000 1.00000000 1.00000000
H 11.10367482 6.11374561 23.83247560 5454 261 0 1.00000000 1.00000000 1.00000000
H 9.97244892 4.86211084 23.52247480 5455 261 0 1.00000000 1.00000000 1.00000000
H 9.42896807 6.55301321 24.02068505 5456 261 0 1.00000000 1.00000000 1.00000000
C 29.33251494 20.02505196 3.77492861 5457 262 0 0.56500000 0.56500000 0.56500000
C 29.01296063 21.46209353 4.13010930 5458 262 0 0.56500000 0.56500000 0.56500000
C 29.90357484 21.95020262 5.17125548 5459 262 0 0.56500000 0.56500000 0.56500000
C 29.68087248 23.37639220 5.60970321 5460 262 0 0.56500000 0.56500000 0.56500000
C 30.24108370 23.74550889 6.92349324 5461 262 0 0.56500000 0.56500000 0.56500000
C 29.68449674 23.08949721 8.15039858 5462 262 0 0.56500000 0.56500000 0.56500000
C 30.33881673 23.70016863 9.41001673 5463 262 0 0.56500000 0.56500000 0.56500000
H 30.32302470 19.95511531 3.34751074 5464 262 0 1.00000000 1.00000000 1.00000000
H 28.67913519 19.54942994 3.04073431 5465 262 0 1.00000000 1.00000000 1.00000000
H 29.37198197 19.39468922 4.62375775 5466 262 0 1.00000000 1.00000000 1.00000000
H 28.00118097 21.35262097 4.49784002 5467 262 0 1.00000000 1.00000000 1.00000000
H 29.12389710 22.12364598 3.24846079 5468 262 0 1.00000000 1.00000000 1.00000000
H 30.98864848 21.89603731 4.89105147 5469 262 0 1.00000000 1.00000000 1.00000000
H 29.84852577 21.30935082 5.98595041 5470 262 0 1.00000000 1.00000000 1.00000000
H 28.53455605 23.65952155 5.73031658 5471 262 0 1.00000000 1.00000000 1.00000000
H 30.11792063 24.05490320 4.90879076 5472 262 0 1.00000000 1.00000000 1.00000000
H 29.97265894 24.78822252 7.04282821 5473 262 0 1.00000000 1.00000000 1.00000000
H 31.31924752 23.63659206 6.98175996 5474 262 0 1.00000000 1.00000000 1.00000000
H 29.79942741 21.97873360 8.21249075 5475 262 0 1.00000000 1.00000000 1.00000000
H 28.62591219 23.26724542 8.15738977 5476 262 0 1.00000000 1.00000000 1.00000000
H 31.37716240 23.45099468 9.47896044 5477 262 0 1.00000000 1.00000000 1.00000000
H 29.80107734 23.22296925 10.23286357 5478 262 0 1.00000000 1.00000000 1.00000000
H 30.16222334 24.80251155 9.43901079 5479 262 0 1.00000000 1.00000000 1.00000000
C 43.01802941 15.88068921 4.31270003 5480 263 0 0.56500000 0.56500000 0.56500000
C 43.99313954 15.71914328 5.48222717 5481 263 0 0.56500000 0.56500000 0.56500000
C 45.39303111 16.30382996 5.27626489 5482 263 0 0.56500000 0.56500000 0.56500000
C 46.45485353 15.41518242 5.72083796 5483 263 0 0.56500000 0.56500000 0.56500000
C 46.78872223 15.46893583 7.21587775 5484 263 0 0.56500000 0.56500000 0.56500000
C 47.21744279 16.84655171 7.66342537 5485 263 0 0.56500000 0.56500000 0.56500000
C 47.64103993 16.78737525 9.12752507 5486 263 0 0.56500000 0.56500000 0.56500000
H 41.97103868 15.56692087 4.48940578 5487 263 0 1.00000000 1.00000000 1.00000000
H 43.41824658 15.31710768 3.45130099 5488 263 0 1.00000000 1.00000000 1.00000000
H 42.91516131 16.91466044 4.00068289 5489 263 0 1.00000000 1.00000000 1.00000000
H 44.05811165 14.61114525 5.68265019 5490 263 0 1.00000000 1.00000000 1.00000000
H 43.56884108 16.01447189 6.49212193 5491 263 0 1.00000000 1.00000000 1.00000000
H 45.37545221 17.33958011 5.63931873 5492 263 0 1.00000000 1.00000000 1.00000000
H 45.49913547 16.48463916 4.15403569 5493 263 0 1.00000000 1.00000000 1.00000000
H 47.39424080 15.65854307 5.17093005 5494 263 0 1.00000000 1.00000000 1.00000000
H 46.19523420 14.35687076 5.38563250 5495 263 0 1.00000000 1.00000000 1.00000000
H 47.47401204 14.53930424 7.31979157 5496 263 0 1.00000000 1.00000000 1.00000000
H 45.83046957 15.12920258 7.65803501 5497 263 0 1.00000000 1.00000000 1.00000000
H 46.38411498 17.63596263 7.60331011 5498 263 0 1.00000000 1.00000000 1.00000000
H 48.02944158 17.19503454 7.09763293 5499 263 0 1.00000000 1.00000000 1.00000000
H 48.27997533 15.91419965 9.30259612 5500 263 0 1.00000000 1.00000000 1.00000000
H 46.78368479 16.70366005 9.76169375 5501 263 0 1.00000000 1.00000000 1.00000000
H 48.14904795 17.69641409 9.47274946 5502 263 0 1.00000000 1.00000000 1.00000000
C 41.82607715 27.88365880 8.37667268 5503 264 0 0.56500000 0.56500000 0.56500000
C 40.71644608 26.84323134 8.25251329 5504 264 0 0.56500000 0.56500000 0.56500000
C 41.01100398 25.34967957 8.47532211 5505 264 0 0.56500000 0.56500000 0.56500000
C 39.77062415 24.44992577 8.44726253 5506 264 0 0.56500000 0.56500000 0.56500000
C 40.06221745 23.07301637 9.03936830 5507 264 0 0.56500000 0.56500000 0.56500000
C 38.91569284 22.06146544 8.69050774 5508 264 0 0.56500000 0.56500000 0.56500000
C 38.60434663 21.09010380 9.83933197 5509 264 0 0.56500000 0.56500000 0.56500000
H 42.04968443 28.11899066 9.42167141 5510 264 0 1.00000000 1.00000000 1.00000000
H 41.57742460 28.81877371 7.77074676 5511 264 0 1.00000000 1.00000000 1.00000000
H 42.83486441 27.51809847 8.07759054 5512 264 0 1.00000000 1.00000000 1.00000000
H 40.33843304 26.86415379 7.22741400 5513 264 0 1.00000000 1.00000000 1.00000000
H 39.86729773 27.06784931 8.84351903 5514 264 0 1.00000000 1.00000000 1.00000000
H 41.44548190 25.34218091 9.45512229 5515 264 0 1.00000000 1.00000000 1.00000000
H 41.80472580 24.94482296 7.80466943 5516 264 0 1.00000000 1.00000000 1.00000000
H 39.35749717 24.35150603 7.43321151 5517 264 0 1.00000000 1.00000000 1.00000000
H 39.00717760 24.86162427 9.09128815 5518 264 0 1.00000000 1.00000000 1.00000000
H 40.04556045 23.19931539 10.13135442 5519 264 0 1.00000000 1.00000000 1.00000000
H 41.02521591 22.65791217 8.74307263 5520 264 0 1.00000000 1.00000000 1.00000000
H 39.21986144 21.47367616 7.74557007 5521 264 0 1.00000000 1.00000000 1.00000000
H 37.99668168 22.67506675 8.48140562 5522 264 0 1.00000000 1.00000000 1.00000000
H 38.05421707 21.57674450 10.65199384 5523 264 0 1.00000000 1.00000000 1.00000000
H 39.52075681 20.68040351 10.26861181 5524 264 0 1.00000000 1.00000000 1.00000000
H 37.86181451 20.34343126 9.42757220 5525 264 0 1.00000000 1.00000000 1.00000000
C 23.01502796 19.05822945 7.17584730 5526 265 0 0.56500000 0.56500000 0.56500000
C 22.36704242 19.70621715 8.40639650 5527 265 0 0.56500000 0.56500000 0.56500000
C 22.09218879 21.17025765 8.22798178 5528 265 0 0.56500000 0.56500000 0.56500000
C 21.48499205 21.85793311 9.44160074 5529 265 0 0.56500000 0.56500000 0.56500000
C 21.13668832 23.35472392 9.27333703 5530 265 0 0.56500000 0.56500000 0.56500000
C 22.41131658 24.15525241 8.92759571 5531 265 0 0.56500000 0.56500000 0.56500000
C 22.06876724 25.71114659 8.66131694 5532 265 0 0.56500000 0.56500000 0.56500000
H 23.29385884 18.04394229 7.28895634 5533 265 0 1.00000000 1.00000000 1.00000000
H 23.92345634 19.56991231 6.81323412 5534 265 0 1.00000000 1.00000000 1.00000000
H 22.32620369 19.11522980 6.30501007 5535 265 0 1.00000000 1.00000000 1.00000000
H 23.06451624 19.56257535 9.30727460 5536 265 0 1.00000000 1.00000000 1.00000000
H 21.42574667 19.13567805 8.48802147 5537 265 0 1.00000000 1.00000000 1.00000000
H 21.35697657 21.35554543 7.37518333 5538 265 0 1.00000000 1.00000000 1.00000000
H 22.96770388 21.81262992 7.91230930 5539 265 0 1.00000000 1.00000000 1.00000000
H 22.19658429 21.76457862 10.27445466 5540 265 0 1.00000000 1.00000000 1.00000000
H 20.53734876 21.35555512 9.73084034 5541 265 0 1.00000000 1.00000000 1.00000000
H 20.71079639 23.78089076 10.16332758 5542 265 0 1.00000000 1.00000000 1.00000000
H 20.35011774 23.46219824 8.58390842 5543 265 0 1.00000000 1.00000000 1.00000000
H 22.84950826 23.62082131 8.06232348 5544 265 0 1.00000000 1.00000000 1.00000000
H 23.18571199 24.04187484 9.72370517 5545 265 0 1.00000000 1.00000000 1.00000000
H 22.14447397 26.24364267 9.60248603 5546 265 0 1.00000000 1.00000000 1.00000000
H 21.03473225 25.85015408 8.21215597 5547 265 0 1.00000000 1.00000000 1.00000000
H 22.76450182 26.13980950 7.95832171 5548 265 0 1.00000000 1.00000000 1.00000000
C 10.23780517 17.48019826 4.26568363 5549 266 0 0.56500000 0.56500000 0.56500000
C 10.84996912 18.87388162 3.89505779 5550 266 0 0.56500000 0.56500000 0.56500000
C 9.97530249 20.03887465 4.08788133 5551 266 0 0.56500000 0.56500000 0.56500000
C 10.74134630 21.31338512 3.64341892 5552 266 0 0.56500000 0.56500000 0.56500000
C 9.86248818 22.48893065 3.31305777 5553 266 0 0.56500000 0.56500000 0.56500000
C 9.01239424 23.06522429 4.45331782 5554 266 0 0.56500000 0.56500000 0.56500000
C 8.12775556 24.16456859 3.80824588 5555 266 0 0.56500000 0.56500000 0.56500000
H 10.68116059 16.65941122 3.72082109 5556 266 0 1.00000000 1.00000000 1.00000000
H 9.14657225 17.45134417 4.21398508 5557 266 0 1.00000000 1.00000000 1.00000000
H 10.55018311 17.18112670 5.33520615 5558 266 0 1.00000000 1.00000000 1.00000000
H 11.21147821 18.78144711 2.89813653 5559 266 0 1.00000000 1.00000000 1.00000000
H 11.78555731 18.93369038 4.49614012 5560 266 0 1.00000000 1.00000000 1.00000000
H 9.65226449 20.18598956 5.08502993 5561 266 0 1.00000000 1.00000000 1.00000000
H 9.08444028 19.93708713 3.39212227 5562 266 0 1.00000000 1.00000000 1.00000000
H 11.36055833 21.07029590 2.75023990 5563 266 0 1.00000000 1.00000000 1.00000000
H 11.46057645 21.66418762 4.38445128 5564 266 0 1.00000000 1.00000000 1.00000000
H 9.16055576 22.15508863 2.49931799 5565 266 0 1.00000000 1.00000000 1.00000000
H 10.47966633 23.24611909 2.86040381 5566 266 0 1.00000000 1.00000000 1.00000000
H 9.60791546 23.40996485 5.29725675 5567 266 0 1.00000000 1.00000000 1.00000000
H 8.43126004 22.24124615 4.86875382 5568 266 0 1.00000000 1.00000000 1.00000000
H 7.60001172 23.75009006 2.99384270 5569 266 0 1.00000000 1.00000000 1.00000000
H 8.65490618 24.99880688 3.50511370 5570 266 0 1.00000000 1.00000000 1.00000000
H 7.33583363 24.60476320 4.45553892 5571 266 0 1.00000000 1.00000000 1.00000000
C 7.87997340 28.93337270 12.78792098 5572 267 0 0.56500000 0.56500000 0.56500000
C 8.22738062 30.08380067 13.71524017 5573 267 0 0.56500000 0.56500000 0.56500000
C 7.03679308 30.46062902 14.60367502 5574 267 0 0.56500000 0.56500000 0.56500000
C 7.46394054 31.59315333 15.49178871 5575 267 0 0.56500000 0.56500000 0.56500000
C 6.49516790 31.98000802 16.63994014 5576 267 0 0.56500000 0.56500000 0.56500000
C 7.02846103 33.28092850 17.18275316 5577 267 0 0.56500000 0.56500000 0.56500000
C 6.18044093 33.95978742 18.30483294 5578 267 0 0.56500000 0.56500000 0.56500000
H 7.00142359 29.21768876 12.19678447 5579 267 0 1.00000000 1.00000000 1.00000000
H 7.52623862 27.97439890 13.23944655 5580 267 0 1.00000000 1.00000000 1.00000000
H 8.77708750 28.76332805 12.04132331 5581 267 0 1.00000000 1.00000000 1.00000000
H 8.63275782 30.91794222 13.10012679 5582 267 0 1.00000000 1.00000000 1.00000000
H 9.07020729 29.75742151 14.37738020 5583 267 0 1.00000000 1.00000000 1.00000000
H 6.83973704 29.58097451 15.29432124 5584 267 0 1.00000000 1.00000000 1.00000000
H 6.07717304 30.65590891 14.12448116 5585 267 0 1.00000000 1.00000000 1.00000000
H 7.68566216 32.53090601 14.90287979 5586 267 0 1.00000000 1.00000000 1.00000000
H 8.42748105 31.30050278 15.82154486 5587 267 0 1.00000000 1.00000000 1.00000000
H 6.47332325 31.21026758 17.39626928 5588 267 0 1.00000000 1.00000000 1.00000000
H 5.48232056 32.17769508 16.30567188 5589 267 0 1.00000000 1.00000000 1.00000000
H 7.24231854 33.94903736 16.32628245 5590 267 0 1.00000000 1.00000000 1.00000000
H 8.03443441 33.15072264 17.60787486 5591 267 0 1.00000000 1.00000000 1.00000000
H 5.21210854 34.30225131 18.06552957 5592 267 0 1.00000000 1.00000000 1.00000000
H 6.66982134 34.84933320 18.74712890 5593 267 0 1.00000000 1.00000000 1.00000000
H 6.09134881 33.16121771 19.07558676 5594 267 0 1.00000000 1.00000000 1.00000000
C 30.02335748 20.33453012 13.53420055 5595 268 0 0.56500000 0.56500000 0.56500000
C 30.52582956 21.72241305 13.28950916 5596 268 0 0.56500000 0.56500000 0.56500000
C 31.15142138 22.37848100 14.54435499 5597 268 0 0.56500000 0.56500000 0.56500000
C 31.57846516 23.85637903 14.43457602 5598 268 0 0.56500000 0.56500000 0.56500000
C 32.84490196 24.03776197 13.59945658 5599 268 0 0.56500000 0.56500000 0.56500000
C 33.18332725 25.45051597 13.20255036 5600 268 0 0.56500000 0.56500000 0.56500000
C 33.34510118 26.33735537 14.37241809 5601 268 0 0.56500000 0.56500000 0.56500000
H 29.78595213 19.80266258 12.58388388 5602 268 0 1.00000000 1.00000000 1.00000000
H 29.14064604 20.14768421 14.18296680 5603 268 0 1.00000000 1.00000000 1.00000000
H 30.85933107 19.66837143 13.88880742 5604 268 0 1.00000000 1.00000000 1.00000000
H 29.68889124 22.33053322 12.93615792 5605 268 0 1.00000000 1.00000000 1.00000000
H 31.30076124 21.69961757 12.47806021 5606 268 0 1.00000000 1.00000000 1.00000000
H 31.90312959 21.71498485 14.90123337 5607 268 0 1.00000000 1.00000000 1.00000000
H 30.34149481 22.32839746 15.27575703 5608 268 0 1.00000000 1.00000000 1.00000000
H 31.77622705 24.08449132 15.47221627 5609 268 0 1.00000000 1.00000000 1.00000000
H 30.68698102 24.36109534 14.14394850 5610 268 0 1.00000000 1.00000000 1.00000000
H 32.71457444 23.38075511 12.72511098 5611 268 0 1.00000000 1.00000000 1.00000000
H 33.60574998 23.52916799 14.16178912 5612 268 0 1.00000000 1.00000000 1.00000000
H 32.34700300 25.79638635 12.59413043 5613 268 0 1.00000000 1.00000000 1.00000000
H 34.01028076 25.44141568 12.50723451 5614 268 0 1.00000000 1.00000000 1.00000000
H 32.38490255 26.35960508 14.96851381 5615 268 0 1.00000000 1.00000000 1.00000000
H 33.53211045 27.40717055 14.15845883 5616 268 0 1.00000000 1.00000000 1.00000000
H 34.07547557 26.15377404 15.10663642 5617 268 0 1.00000000 1.00000000 1.00000000
C 39.41990985 30.17607166 33.19432507 5618 269 0 0.56500000 0.56500000 0.56500000
C 40.01843686 31.09915541 32.13702256 5619 269 0 0.56500000 0.56500000 0.56500000
C 41.15786685 32.04837785 32.70368902 5620 269 0 0.56500000 0.56500000 0.56500000
C 40.79392870 33.27967116 33.50377434 5621 269 0 0.56500000 0.56500000 0.56500000
C 40.41426021 34.58843791 32.78139842 5622 269 0 0.56500000 0.56500000 0.56500000
C 40.11705848 35.64547552 33.78206971 5623 269 0 0.56500000 0.56500000 0.56500000
C 40.19090596 36.99725623 33.16160454 5624 269 0 0.56500000 0.56500000 0.56500000
H 40.13973962 29.37119483 33.51388015 5625 269 0 1.00000000 1.00000000 1.00000000
H 38.47503549 29.72484748 32.79374135 5626 269 0 1.00000000 1.00000000 1.00000000
H 39.17141800 30.60344359 34.18092160 5627 269 0 1.00000000 1.00000000 1.00000000
H 39.20810777 31.67709574 31.74874976 5628 269 0 1.00000000 1.00000000 1.00000000
H 40.44579957 30.42735074 31.34840488 5629 269 0 1.00000000 1.00000000 1.00000000
H 41.85548623 32.27420475 31.91021419 5630 269 0 1.00000000 1.00000000 1.00000000
H 41.81520280 31.48297892 33.41852372 5631 269 0 1.00000000 1.00000000 1.00000000
H 41.71611084 33.62270977 34.02855577 5632 269 0 1.00000000 1.00000000 1.00000000
H 40.10611161 33.03839592 34.20506609 5633 269 0 1.00000000 1.00000000 1.00000000
H 39.69821456 34.36464048 32.01230459 5634 269 0 1.00000000 1.00000000 1.00000000
H 41.35856583 34.95141801 32.24313031 5635 269 0 1.00000000 1.00000000 1.00000000
H 40.82566017 35.64631516 34.65019783 5636 269 0 1.00000000 1.00000000 1.00000000
H 39.18125285 35.41822649 34.24425024 5637 269 0 1.00000000 1.00000000 1.00000000
H 41.18044767 37.15505331 32.62548346 5638 269 0 1.00000000 1.00000000 1.00000000
H 39.93694712 37.77254395 33.88282141 5639 269 0 1.00000000 1.00000000 1.00000000
H 39.42336753 37.04971441 32.41874730 5640 269 0 1.00000000 1.00000000 1.00000000
C 39.35306548 46.80806973 36.38356868 5641 270 0 0.56500000 0.56500000 0.56500000
C 39.97963935 45.55194670 35.67766359 5642 270 0 0.56500000 0.56500000 0.56500000
C 39.00191708 44.69078000 34.86438136 5643 270 0 0.56500000 0.56500000 0.56500000
C 39.52790512 43.25348067 34.67167514 5644 270 0 0.56500000 0.56500000 0.56500000
C 38.60783167 42.27533468 33.88878313 5645 270 0 0.56500000 0.56500000 0.56500000
C 39.22127602 40.93746127 33.69879190 5646 270 0 0.56500000 0.56500000 0.56500000
C 38.35217923 40.18740999 32.63245694 5647 270 0 0.56500000 0.56500000 0.56500000
H 38.47945198 46.38969252 37.01037378 5648 270 0 1.00000000 1.00000000 1.00000000
H 38.91039083 47.53502042 35.73730651 5649 270 0 1.00000000 1.00000000 1.00000000
H 40.10108566 47.23100232 37.10699917 5650 270 0 1.00000000 1.00000000 1.00000000
H 40.31383030 44.85875845 36.48531399 5651 270 0 1.00000000 1.00000000 1.00000000
H 40.83987555 45.83266004 35.13727644 5652 270 0 1.00000000 1.00000000 1.00000000
H 38.82094703 45.31384820 33.96255492 5653 270 0 1.00000000 1.00000000 1.00000000
H 38.10430914 44.65106169 35.48994787 5654 270 0 1.00000000 1.00000000 1.00000000
H 39.73089836 42.89782130 35.70246877 5655 270 0 1.00000000 1.00000000 1.00000000
H 40.54477252 43.37651143 34.24404793 5656 270 0 1.00000000 1.00000000 1.00000000
H 38.28520546 42.71134110 32.91343879 5657 270 0 1.00000000 1.00000000 1.00000000
H 37.69729639 42.24305991 34.48820410 5658 270 0 1.00000000 1.00000000 1.00000000
H 39.41353279 40.45380374 34.65056499 5659 270 0 1.00000000 1.00000000 1.00000000
H 40.15533759 41.10747503 33.18345275 5660 270 0 1.00000000 1.00000000 1.00000000
H 38.56509573 40.60419613 31.65066460 5661 270 0 1.00000000 1.00000000 1.00000000
H 37.27163597 40.38970347 32.91542842 5662 270 0 1.00000000 1.00000000 1.00000000
H 38.58932700 39.13640125 32.62318184 5663 270 0 1.00000000 1.00000000 1.00000000
C 26.01898347 25.46368442 20.31658958 5664 271 0 0.56500000 0.56500000 0.56500000
C 26.08038942 23.92947559 20.70740865 5665 271 0 0.56500000 0.56500000 0.56500000
C 26.30912720 23.56039094 22.15354290 5666 271 0 0.56500000 0.56500000 0.56500000
C 27.62539444 24.07675971 22.83130653 5667 271 0 0.56500000 0.56500000 0.56500000
C 27.65448299 24.06104701 24.33642598 5668 271 0 0.56500000 0.56500000 0.56500000
C 26.98247273 22.92655753 25.07484522 5669 271 0 0.56500000 0.56500000 0.56500000
C 27.17815975 22.88010246 26.57522875 5670 271 0 0.56500000 0.56500000 0.56500000
H 26.52680008 25.91254191 21.18052912 5671 271 0 1.00000000 1.00000000 1.00000000
H 24.98121595 25.89100514 20.30816187 5672 271 0 1.00000000 1.00000000 1.00000000
H 26.44627622 25.62103234 19.35731674 5673 271 0 1.00000000 1.00000000 1.00000000
H 26.95517976 23.59648614 20.15982648 5674 271 0 1.00000000 1.00000000 1.00000000
H 25.19588882 23.36823398 20.33807123 5675 271 0 1.00000000 1.00000000 1.00000000
H 26.23532465 22.48942379 22.23586956 5676 271 0 1.00000000 1.00000000 1.00000000
H 25.47100581 23.83490715 22.79255531 5677 271 0 1.00000000 1.00000000 1.00000000
H 27.90007264 25.06293066 22.48580784 5678 271 0 1.00000000 1.00000000 1.00000000
H 28.43811273 23.54940326 22.44608486 5679 271 0 1.00000000 1.00000000 1.00000000
H 27.10032057 24.90576733 24.69153570 5680 271 0 1.00000000 1.00000000 1.00000000
H 28.72574853 24.25461239 24.71292562 5681 271 0 1.00000000 1.00000000 1.00000000
H 27.27703024 21.95629712 24.70636424 5682 271 0 1.00000000 1.00000000 1.00000000
H 25.94863645 22.90299122 24.75650468 5683 271 0 1.00000000 1.00000000 1.00000000
H 26.63349252 22.04863637 26.92398425 5684 271 0 1.00000000 1.00000000 1.00000000
H 26.93358905 23.92515364 26.98559181 5685 271 0 1.00000000 1.00000000 1.00000000
H 28.27750078 22.76317224 26.84124757 5686 271 0 1.00000000 1.00000000 1.00000000
C 22.17288934 32.42147596 18.08067557 5687 272 0 0.56500000 0.56500000 0.56500000
C 21.86880189 32.19179452 16.54617522 5688 272 0 0.56500000 0.56500000 0.56500000
C 21.05636740 30.95102603 16.10274677 5689 272 0 0.56500000 0.56500000 0.56500000
C 19.53518155 31.15872788 16.51117922 5690 272 0 0.56500000 0.56500000 0.56500000
C 18.65989160 30.16899861 15.77132234 5691 272 0 0.56500000 0.56500000 0.56500000
C 19.08593319 28.74919419 15.90491168 5692 272 0 0.56500000 0.56500000 0.56500000
C 18.05307014 27.93763233 15.18833744 5693 272 0 0.56500000 0.56500000 0.56500000
H 21.29202093 32.83920754 18.58554170 5694 272 0 1.00000000 1.00000000 1.00000000
H 22.96099483 33.06216879 18.21273375 5695 272 0 1.00000000 1.00000000 1.00000000
H 22.49732531 31.46546953 18.53395461 5696 272 0 1.00000000 1.00000000 1.00000000
H 22.95214902 32.11392845 16.23008367 5697 272 0 1.00000000 1.00000000 1.00000000
H 21.42496853 33.07600461 16.12002671 5698 272 0 1.00000000 1.00000000 1.00000000
H 21.51417039 30.00586681 16.52482917 5699 272 0 1.00000000 1.00000000 1.00000000
H 21.25409070 30.85188550 15.02198425 5700 272 0 1.00000000 1.00000000 1.00000000
H 19.29064183 32.20116245 16.19841298 5701 272 0 1.00000000 1.00000000 1.00000000
H 19.53856810 31.07364438 17.59066170 5702 272 0 1.00000000 1.00000000 1.00000000
H 18.56062540 30.34614972 14.67992639 5703 272 0 1.00000000 1.00000000 1.00000000
H 17.64369084 30.20252445 16.17451456 5704 272 0 1.00000000 1.00000000 1.00000000
H 19.03379102 28.49285264 16.98979223 5705 272 0 1.00000000 1.00000000 1.00000000
H 20.13085334 28.56749623 15.58892280 5706 272 0 1.00000000 1.00000000 1.00000000
H 17.05822690 28.14407555 15.56598943 5707 272 0 1.00000000 1.00000000 1.00000000
H 18.17147687 26.85763675 15.29991031 5708 272 0 1.00000000 1.00000000 1.00000000
H 18.03464055 28.09639099 14.08033394 5709 272 0 1.00000000 1.00000000 1.00000000
C 28.77380266 51.97583431 -5.14618137 5710 273 0 0.56500000 0.56500000 0.56500000
C 27.83371944 51.23423001 -4.19529297 5711 273 0 0.56500000 0.56500000 0.56500000
C 27.79935362 49.73198921 -4.61288319 5712 273 0 0.56500000 0.56500000 0.56500000
C 27.02478475 48.72178090 -3.74618917 5713 273 0 0.56500000 0.56500000 0.56500000
C 26.84795663 47.37825728 -4.62644094 5714 273 0 0.56500000 0.56500000 0.56500000
C 26.23104262 46.26045260 -3.83481793 5715 273 0 0.56500000 0.56500000 0.56500000
C 26.24172598 44.85197218 -4.41719493 5716 273 0 0.56500000 0.56500000 0.56500000
H 29.87286671 51.70490144 -5.04888062 5717 273 0 1.00000000 1.00000000 1.00000000
H 28.64706904 53.04912047 -5.04832411 5718 273 0 1.00000000 1.00000000 1.00000000
H 28.51206882 51.73236210 -6.14586365 5719 273 0 1.00000000 1.00000000 1.00000000
H 26.79493809 51.65488124 -4.33042495 5720 273 0 1.00000000 1.00000000 1.00000000
H 28.19864121 51.30170726 -3.13429177 5721 273 0 1.00000000 1.00000000 1.00000000
H 28.81846065 49.39851743 -4.65164118 5722 273 0 1.00000000 1.00000000 1.00000000
H 27.46748268 49.49089724 -5.59443936 5723 273 0 1.00000000 1.00000000 1.00000000
H 26.02614159 49.16613999 -3.49724074 5724 273 0 1.00000000 1.00000000 1.00000000
H 27.73395863 48.51620200 -2.88391832 5725 273 0 1.00000000 1.00000000 1.00000000
H 27.88444758 47.13084454 -4.89044568 5726 273 0 1.00000000 1.00000000 1.00000000
H 26.28009307 47.60594019 -5.52867167 5727 273 0 1.00000000 1.00000000 1.00000000
H 25.15799092 46.47181649 -3.68247098 5728 273 0 1.00000000 1.00000000 1.00000000
H 26.73521914 46.38317874 -2.87484127 5729 273 0 1.00000000 1.00000000 1.00000000
H 25.72470483 44.88280223 -5.43066903 5730 273 0 1.00000000 1.00000000 1.00000000
H 25.66022279 44.22646814 -3.78026705 5731 273 0 1.00000000 1.00000000 1.00000000
H 27.25113685 44.33962684 -4.46263131 5732 273 0 1.00000000 1.00000000 1.00000000
C 17.97770620 45.31809261 32.39177999 5733 274 0 0.56500000 0.56500000 0.56500000
C 18.44144519 45.48201193 30.89098466 5734 274 0 0.56500000 0.56500000 0.56500000
C 18.19856663 46.84886874 30.29687256 5735 274 0 0.56500000 0.56500000 0.56500000
C 18.81163706 46.95896316 28.91363744 5736 274 0 0.56500000 0.56500000 0.56500000
C 18.58076709 48.24726540 28.19630558 5737 274 0 0.56500000 0.56500000 0.56500000
C 18.78010987 48.30393016 26.67633845 5738 274 0 0.56500000 0.56500000 0.56500000
C 18.68284257 49.77364761 26.29004855 5739 274 0 0.56500000 0.56500000 0.56500000
H 18.25656090 44.33278627 32.67602016 5740 274 0 1.00000000 1.00000000 1.00000000
H 16.93212524 45.54669018 32.51502963 5741 274 0 1.00000000 1.00000000 1.00000000
H 18.56183569 45.97540184 33.09842954 5742 274 0 1.00000000 1.00000000 1.00000000
H 18.03486042 44.60857527 30.25836139 5743 274 0 1.00000000 1.00000000 1.00000000
H 19.53436031 45.26922033 30.92458036 5744 274 0 1.00000000 1.00000000 1.00000000
H 18.45240221 47.73058799 30.94867619 5745 274 0 1.00000000 1.00000000 1.00000000
H 17.10330568 46.89941731 30.12358664 5746 274 0 1.00000000 1.00000000 1.00000000
H 18.36415693 46.22218981 28.27922107 5747 274 0 1.00000000 1.00000000 1.00000000
H 19.86446859 46.61013793 28.92983219 5748 274 0 1.00000000 1.00000000 1.00000000
H 19.07077407 49.08058124 28.73738827 5749 274 0 1.00000000 1.00000000 1.00000000
H 17.54387363 48.51983360 28.30537153 5750 274 0 1.00000000 1.00000000 1.00000000
H 17.89163579 47.70318129 26.26646184 5751 274 0 1.00000000 1.00000000 1.00000000
H 19.71575882 47.88964639 26.36530073 5752 274 0 1.00000000 1.00000000 1.00000000
H 18.72034017 49.82079042 25.21965323 5753 274 0 1.00000000 1.00000000 1.00000000
H 19.52495817 50.24088757 26.78997639 5754 274 0 1.00000000 1.00000000 1.00000000
H 17.82101603 50.27937408 26.78021534 5755 274 0 1.00000000 1.00000000 1.00000000
C 34.75382351 5.44333465 27.18125642 5756 275 0 0.56500000 0.56500000 0.56500000
C 34.10502598 5.26259014 25.80524701 5757 275 0 0.56500000 0.56500000 0.56500000
C 35.04880872 5.29034395 24.54907830 5758 275 0 0.56500000 0.56500000 0.56500000
C 34.26422535 4.92246055 23.28606876 5759 275 0 0.56500000 0.56500000 0.56500000
C 33.12172499 5.91414284 22.94906708 5760 275 0 0.56500000 0.56500000 0.56500000
C 32.43687520 5.62475208 21.64459001 5761 275 0 0.56500000 0.56500000 0.56500000
C 31.48076355 6.69295746 21.12001590 5762 275 0 0.56500000 0.56500000 0.56500000
H 35.24623792 6.46945392 27.23257122 5763 275 0 1.00000000 1.00000000 1.00000000
H 35.51025263 4.69412565 27.31418859 5764 275 0 1.00000000 1.00000000 1.00000000
H 33.96792644 5.48136169 27.99944028 5765 275 0 1.00000000 1.00000000 1.00000000
H 33.31979854 6.01572763 25.77278493 5766 275 0 1.00000000 1.00000000 1.00000000
H 33.54577960 4.37734431 25.87562623 5767 275 0 1.00000000 1.00000000 1.00000000
H 35.85417977 4.57951778 24.77247820 5768 275 0 1.00000000 1.00000000 1.00000000
H 35.59694625 6.26591252 24.49170105 5769 275 0 1.00000000 1.00000000 1.00000000
H 33.93165060 3.91724994 23.43142983 5770 275 0 1.00000000 1.00000000 1.00000000
H 34.95273497 4.77352715 22.45266807 5771 275 0 1.00000000 1.00000000 1.00000000
H 33.55555619 6.99318131 22.98924285 5772 275 0 1.00000000 1.00000000 1.00000000
H 32.38079607 5.98890944 23.79084561 5773 275 0 1.00000000 1.00000000 1.00000000
H 31.85715267 4.72823682 21.74735555 5774 275 0 1.00000000 1.00000000 1.00000000
H 33.22628533 5.51527019 20.95211071 5775 275 0 1.00000000 1.00000000 1.00000000
H 31.85222887 7.78319297 20.92042567 5776 275 0 1.00000000 1.00000000 1.00000000
H 30.58459193 6.87055941 21.82633757 5777 275 0 1.00000000 1.00000000 1.00000000
H 30.93428313 6.28773597 20.32458608 5778 275 0 1.00000000 1.00000000 1.00000000
C 38.89179409 47.92250193 24.01203730 5779 276 0 0.56500000 0.56500000 0.56500000
C 40.13458247 47.81264084 23.25084559 5780 276 0 0.56500000 0.56500000 0.56500000
C 40.50686087 46.40489537 23.00371260 5781 276 0 0.56500000 0.56500000 0.56500000
C 41.91331278 46.14989466 22.42350021 5782 276 0 0.56500000 0.56500000 0.56500000
C 42.01362806 44.70085901 21.96727420 5783 276 0 0.56500000 0.56500000 0.56500000
C 43.25285542 44.07984116 21.27360584 5784 276 0 0.56500000 0.56500000 0.56500000
C 44.41900428 43.81375076 22.25743324 5785 276 0 0.56500000 0.56500000 0.56500000
H 38.07861786 47.43896084 23.48121568 5786 276 0 1.00000000 1.00000000 1.00000000
H 38.58914239 48.91043026 24.17281046 5787 276 0 1.00000000 1.00000000 1.00000000
H 39.04558892 47.43979158 24.96829002 5788 276 0 1.00000000 1.00000000 1.00000000
H 40.89000797 48.43407467 23.71671269 5789 276 0 1.00000000 1.00000000 1.00000000
H 39.94248044 48.29977043 22.26431827 5790 276 0 1.00000000 1.00000000 1.00000000
H 39.70397367 46.03273745 22.40170733 5791 276 0 1.00000000 1.00000000 1.00000000
H 40.33398565 45.88391445 24.00910434 5792 276 0 1.00000000 1.00000000 1.00000000
H 42.72501792 46.36288081 23.06268221 5793 276 0 1.00000000 1.00000000 1.00000000
H 42.03636945 46.89118308 21.57809702 5794 276 0 1.00000000 1.00000000 1.00000000
H 41.20512296 44.52403966 21.26435549 5795 276 0 1.00000000 1.00000000 1.00000000
H 41.86044648 44.07624103 22.82218309 5796 276 0 1.00000000 1.00000000 1.00000000
H 43.67161160 44.70986155 20.44739039 5797 276 0 1.00000000 1.00000000 1.00000000
H 42.88618533 43.22069682 20.69574211 5798 276 0 1.00000000 1.00000000 1.00000000
H 44.66467764 44.80010761 22.76600745 5799 276 0 1.00000000 1.00000000 1.00000000
H 45.32790928 43.55615460 21.82470228 5800 276 0 1.00000000 1.00000000 1.00000000
H 44.11564291 43.13942776 23.08665133 5801 276 0 1.00000000 1.00000000 1.00000000
C 15.10692449 39.09485951 34.90167026 5802 277 0 0.56500000 0.56500000 0.56500000
C 16.22671073 38.40417435 34.17831962 5803 277 0 0.56500000 0.56500000 0.56500000
C 16.86561579 37.36039245 35.06009126 5804 277 0 0.56500000 0.56500000 0.56500000
C 18.10315303 37.73996223 35.91463585 5805 277 0 0.56500000 0.56500000 0.56500000
C 17.90999888 38.85505300 36.93537989 5806 277 0 0.56500000 0.56500000 0.56500000
C 19.13206203 38.98608207 37.88225157 5807 277 0 0.56500000 0.56500000 0.56500000
C 18.85242970 40.01235074 38.94690024 5808 277 0 0.56500000 0.56500000 0.56500000
H 14.66771492 39.92143025 34.33226767 5809 277 0 1.00000000 1.00000000 1.00000000
H 15.65094817 39.48177270 35.76565509 5810 277 0 1.00000000 1.00000000 1.00000000
H 14.32307848 38.40410710 35.28629404 5811 277 0 1.00000000 1.00000000 1.00000000
H 16.95962242 39.08309061 33.73492678 5812 277 0 1.00000000 1.00000000 1.00000000
H 15.81463888 37.91975343 33.22786691 5813 277 0 1.00000000 1.00000000 1.00000000
H 17.31074520 36.53974381 34.46685214 5814 277 0 1.00000000 1.00000000 1.00000000
H 16.15777836 36.85446976 35.79768506 5815 277 0 1.00000000 1.00000000 1.00000000
H 18.90278722 37.93058453 35.22636294 5816 277 0 1.00000000 1.00000000 1.00000000
H 18.38747105 36.86163466 36.42539106 5817 277 0 1.00000000 1.00000000 1.00000000
H 17.06803347 38.49046327 37.60995035 5818 277 0 1.00000000 1.00000000 1.00000000
H 17.77873316 39.87918904 36.47919583 5819 277 0 1.00000000 1.00000000 1.00000000
H 19.98973567 39.29312338 37.31823764 5820 277 0 1.00000000 1.00000000 1.00000000
H 19.36809982 37.98384050 38.30976386 5821 277 0 1.00000000 1.00000000 1.00000000
H 17.88657277 39.81207049 39.39772955 5822 277 0 1.00000000 1.00000000 1.00000000
H 18.81949196 41.03451614 38.57408394 5823 277 0 1.00000000 1.00000000 1.00000000
H 19.57847538 40.09218251 39.73140385 5824 277 0 1.00000000 1.00000000 1.00000000
C 46.93692801 30.52829651 1.49638590 5825 278 0 0.56500000 0.56500000 0.56500000
C 45.83126884 30.10126582 0.53726997 5826 278 0 0.56500000 0.56500000 0.56500000
C 46.00191527 28.68436076 -0.00077289 5827 278 0 0.56500000 0.56500000 0.56500000
C 44.78976235 28.31368387 -0.89510865 5828 278 0 0.56500000 0.56500000 0.56500000
C 44.90020386 26.84503607 -1.23717674 5829 278 0 0.56500000 0.56500000 0.56500000
C 43.61972592 26.10469974 -1.57641539 5830 278 0 0.56500000 0.56500000 0.56500000
C 42.61328598 26.00484286 -0.46629072 5831 278 0 0.56500000 0.56500000 0.56500000
H 47.05350235 29.70466758 2.24785368 5832 278 0 1.00000000 1.00000000 1.00000000
H 46.78099163 31.47268132 2.04963278 5833 278 0 1.00000000 1.00000000 1.00000000
H 47.91101084 30.61331084 0.96005789 5834 278 0 1.00000000 1.00000000 1.00000000
H 45.75288368 30.71789278 -0.36069130 5835 278 0 1.00000000 1.00000000 1.00000000
H 44.89112747 30.04348002 1.14771267 5836 278 0 1.00000000 1.00000000 1.00000000
H 45.99620856 28.01349851 0.87432497 5837 278 0 1.00000000 1.00000000 1.00000000
H 46.87815140 28.50205141 -0.67506749 5838 278 0 1.00000000 1.00000000 1.00000000
H 44.78821582 28.93100519 -1.76634762 5839 278 0 1.00000000 1.00000000 1.00000000
H 43.85218603 28.52714508 -0.37256617 5840 278 0 1.00000000 1.00000000 1.00000000
H 45.40081789 26.36399371 -0.34128175 5841 278 0 1.00000000 1.00000000 1.00000000
H 45.54382510 26.70550886 -2.13330301 5842 278 0 1.00000000 1.00000000 1.00000000
H 43.95652310 25.13620070 -2.03816464 5843 278 0 1.00000000 1.00000000 1.00000000
H 43.03136875 26.65654053 -2.31414572 5844 278 0 1.00000000 1.00000000 1.00000000
H 43.02536598 25.55534693 0.40741573 5845 278 0 1.00000000 1.00000000 1.00000000
H 41.77300438 25.29131565 -0.71118290 5846 278 0 1.00000000 1.00000000 1.00000000
H 42.04314706 26.89718339 -0.26941429 5847 278 0 1.00000000 1.00000000 1.00000000
C 41.01710124 37.75124930 29.42373609 5848 279 0 0.56500000 0.56500000 0.56500000
C 39.52237630 37.55017988 29.17065059 5849 279 0 0.56500000 0.56500000 0.56500000
C 39.15101856 37.73317586 27.65951831 5850 279 0 0.56500000 0.56500000 0.56500000
C 39.68778597 36.66164618 26.71062512 5851 279 0 0.56500000 0.56500000 0.56500000
C 39.37892538 36.82437250 25.17357988 5852 279 0 0.56500000 0.56500000 0.56500000
C 39.15782947 35.41936731 24.55573438 5853 279 0 0.56500000 0.56500000 0.56500000
C 38.84914880 35.39213799 23.05676010 5854 279 0 0.56500000 0.56500000 0.56500000
H 41.32648373 38.77166452 29.31971575 5855 279 0 1.00000000 1.00000000 1.00000000
H 41.73403435 37.11934198 28.90919190 5856 279 0 1.00000000 1.00000000 1.00000000
H 41.25909037 37.53105666 30.45132347 5857 279 0 1.00000000 1.00000000 1.00000000
H 39.00557647 38.26821897 29.80229319 5858 279 0 1.00000000 1.00000000 1.00000000
H 39.37656690 36.43758354 29.48127702 5859 279 0 1.00000000 1.00000000 1.00000000
H 39.62158990 38.68729671 27.24113993 5860 279 0 1.00000000 1.00000000 1.00000000
H 38.13468186 37.84702661 27.46173022 5861 279 0 1.00000000 1.00000000 1.00000000
H 39.20746260 35.70468575 27.13297185 5862 279 0 1.00000000 1.00000000 1.00000000
H 40.74157444 36.37794596 26.85681628 5863 279 0 1.00000000 1.00000000 1.00000000
H 40.17648036 37.38819619 24.69707544 5864 279 0 1.00000000 1.00000000 1.00000000
H 38.49030504 37.40681452 24.99381546 5865 279 0 1.00000000 1.00000000 1.00000000
H 38.34845703 34.97243317 25.20314525 5866 279 0 1.00000000 1.00000000 1.00000000
H 39.97553753 34.65566905 24.89647126 5867 279 0 1.00000000 1.00000000 1.00000000
H 39.72456935 35.63023630 22.39181590 5868 279 0 1.00000000 1.00000000 1.00000000
H 38.01670577 36.03877744 22.82855811 5869 279 0 1.00000000 1.00000000 1.00000000
H 38.64613904 34.35440381 22.80836824 5870 279 0 1.00000000 1.00000000 1.00000000
C 26.20867145 33.19592177 0.71971070 5871 280 0 0.56500000 0.56500000 0.56500000
C 27.05458809 32.27887918 1.62431465 5872 280 0 0.56500000 0.56500000 0.56500000
C 28.24282409 32.86150347 2.47087205 5873 280 0 0.56500000 0.56500000 0.56500000
C 29.23246928 31.82373786 2.77456044 5874 280 0 0.56500000 0.56500000 0.56500000
C 28.79921163 30.66028795 3.58651385 5875 280 0 0.56500000 0.56500000 0.56500000
C 29.92648319 29.96567951 4.38057288 5876 280 0 0.56500000 0.56500000 0.56500000
C 29.45936504 28.90930043 5.32783050 5877 280 0 0.56500000 0.56500000 0.56500000
H 25.81951852 34.04698151 1.27184129 5878 280 0 1.00000000 1.00000000 1.00000000
H 25.35566033 32.58495675 0.31476777 5879 280 0 1.00000000 1.00000000 1.00000000
H 26.69793066 33.57402259 -0.12455986 5880 280 0 1.00000000 1.00000000 1.00000000
H 27.42126090 31.49042220 0.94166466 5881 280 0 1.00000000 1.00000000 1.00000000
H 26.37763228 31.72960016 2.24516548 5882 280 0 1.00000000 1.00000000 1.00000000
H 27.90767241 33.29873439 3.37668989 5883 280 0 1.00000000 1.00000000 1.00000000
H 28.66276592 33.66457890 1.89218469 5884 280 0 1.00000000 1.00000000 1.00000000
H 30.08551730 32.34652442 3.25354027 5885 280 0 1.00000000 1.00000000 1.00000000
H 29.58472283 31.35098621 1.81100076 5886 280 0 1.00000000 1.00000000 1.00000000
H 28.38633415 29.85199460 2.91991747 5887 280 0 1.00000000 1.00000000 1.00000000
H 28.03187335 31.00200363 4.22659540 5888 280 0 1.00000000 1.00000000 1.00000000
H 30.44234438 30.73141180 4.96086486 5889 280 0 1.00000000 1.00000000 1.00000000
H 30.65817480 29.58661567 3.67547623 5890 280 0 1.00000000 1.00000000 1.00000000
H 30.29345843 28.37204956 5.82900632 5891 280 0 1.00000000 1.00000000 1.00000000
H 28.86565973 28.14440896 4.83427684 5892 280 0 1.00000000 1.00000000 1.00000000
H 28.66415436 29.24709145 6.03801073 5893 280 0 1.00000000 1.00000000 1.00000000
C 25.91991167 6.29565163 -6.46154007 5894 281 0 0.56500000 0.56500000 0.56500000
C 27.29229796 5.95241778 -5.92565149 5895 281 0 0.56500000 0.56500000 0.56500000
C 27.45711556 5.45234245 -4.48712836 5896 281 0 0.56500000 0.56500000 0.56500000
C 26.84028605 6.39163293 -3.43889953 5897 281 0 0.56500000 0.56500000 0.56500000
C 27.76522697 7.58951562 -3.19090746 5898 281 0 0.56500000 0.56500000 0.56500000
C 27.53125186 8.30754521 -1.86486370 5899 281 0 0.56500000 0.56500000 0.56500000
C 26.03579807 8.69883373 -1.57022906 5900 281 0 0.56500000 0.56500000 0.56500000
H 25.29142138 5.40302107 -6.32360821 5901 281 0 1.00000000 1.00000000 1.00000000
H 25.90402560 6.61828822 -7.51674099 5902 281 0 1.00000000 1.00000000 1.00000000
H 25.39251540 6.99043666 -5.84710689 5903 281 0 1.00000000 1.00000000 1.00000000
H 27.97756033 6.83687072 -6.06988374 5904 281 0 1.00000000 1.00000000 1.00000000
H 27.82821278 5.19362224 -6.47963076 5905 281 0 1.00000000 1.00000000 1.00000000
H 28.53412105 5.36515672 -4.47455520 5906 281 0 1.00000000 1.00000000 1.00000000
H 27.14666014 4.38707647 -4.39550082 5907 281 0 1.00000000 1.00000000 1.00000000
H 26.77687480 5.77750145 -2.50806902 5908 281 0 1.00000000 1.00000000 1.00000000
H 25.81709038 6.70675000 -3.75584214 5909 281 0 1.00000000 1.00000000 1.00000000
H 27.62468690 8.29181595 -4.01933531 5910 281 0 1.00000000 1.00000000 1.00000000
H 28.83803015 7.32706948 -3.35646990 5911 281 0 1.00000000 1.00000000 1.00000000
H 28.12005824 9.21071377 -1.72654387 5912 281 0 1.00000000 1.00000000 1.00000000
H 27.84999629 7.65453600 -1.03326499 5913 281 0 1.00000000 1.00000000 1.00000000
H 25.59181362 9.13313702 -2.45943527 5914 281 0 1.00000000 1.00000000 1.00000000
H 25.98869611 9.56867220 -0.84398993 5915 281 0 1.00000000 1.00000000 1.00000000
H 25.49885031 7.86326143 -1.16591218 5916 281 0 1.00000000 1.00000000 1.00000000
C 22.07570283 8.14151381 -0.49487850 5917 282 0 0.56500000 0.56500000 0.56500000
C 21.66302402 8.77578618 -1.89467232 5918 282 0 0.56500000 0.56500000 0.56500000
C 22.06201981 7.89523778 -3.10049926 5919 282 0 0.56500000 0.56500000 0.56500000
C 21.68958115 8.51454299 -4.45892613 5920 282 0 0.56500000 0.56500000 0.56500000
C 22.01679396 7.57049498 -5.62421517 5921 282 0 0.56500000 0.56500000 0.56500000
C 22.01043588 8.32688848 -6.96898208 5922 282 0 0.56500000 0.56500000 0.56500000
C 20.67126777 9.08490803 -7.16133309 5923 282 0 0.56500000 0.56500000 0.56500000
H 23.12784786 8.01640119 -0.54459234 5924 282 0 1.00000000 1.00000000 1.00000000
H 21.65393444 7.23746861 -0.23998942 5925 282 0 1.00000000 1.00000000 1.00000000
H 21.93043042 8.83613381 0.30555329 5926 282 0 1.00000000 1.00000000 1.00000000
H 22.02694523 9.81584242 -2.05693724 5927 282 0 1.00000000 1.00000000 1.00000000
H 20.53864582 8.96170930 -1.94624520 5928 282 0 1.00000000 1.00000000 1.00000000
H 21.57966906 6.95016770 -2.98318481 5929 282 0 1.00000000 1.00000000 1.00000000
H 23.13237098 7.84618911 -2.91100919 5930 282 0 1.00000000 1.00000000 1.00000000
H 22.15516311 9.41741592 -4.74640580 5931 282 0 1.00000000 1.00000000 1.00000000
H 20.60134348 8.72618848 -4.47118770 5932 282 0 1.00000000 1.00000000 1.00000000
H 21.35482798 6.70465496 -5.66099732 5933 282 0 1.00000000 1.00000000 1.00000000
H 22.97236949 6.98806912 -5.54282101 5934 282 0 1.00000000 1.00000000 1.00000000
H 22.09892448 7.54317368 -7.77690378 5935 282 0 1.00000000 1.00000000 1.00000000
H 22.87370592 8.98843801 -7.07908418 5936 282 0 1.00000000 1.00000000 1.00000000
H 20.75815222 9.69884905 -8.10085415 5937 282 0 1.00000000 1.00000000 1.00000000
H 20.38614601 9.79621703 -6.40547678 5938 282 0 1.00000000 1.00000000 1.00000000
H 19.84626215 8.42232831 -7.28203172 5939 282 0 1.00000000 1.00000000 1.00000000
C 31.28177568 41.76107542 6.55038991 5940 283 0 0.56500000 0.56500000 0.56500000
C 31.55354651 41.22809048 7.91678652 5941 283 0 0.56500000 0.56500000 0.56500000
C 31.92031131 42.24338806 9.03024427 5942 283 0 0.56500000 0.56500000 0.56500000
C 30.79086354 43.18592835 9.42152411 5943 283 0 0.56500000 0.56500000 0.56500000
C 31.30702357 44.49524658 10.02259048 5944 283 0 0.56500000 0.56500000 0.56500000
C 30.20303157 45.34093708 10.72327943 5945 283 0 0.56500000 0.56500000 0.56500000
C 29.88153222 44.93623521 12.18042299 5946 283 0 0.56500000 0.56500000 0.56500000
H 30.82768712 41.08786007 5.84764120 5947 283 0 1.00000000 1.00000000 1.00000000
H 32.18499930 42.06251245 6.01969847 5948 283 0 1.00000000 1.00000000 1.00000000
H 30.53113949 42.49953598 6.65518485 5949 283 0 1.00000000 1.00000000 1.00000000
H 32.37805852 40.51673470 8.01360347 5950 283 0 1.00000000 1.00000000 1.00000000
H 30.65700188 40.62105906 8.24411603 5951 283 0 1.00000000 1.00000000 1.00000000
H 32.77930837 42.93045331 8.61628258 5952 283 0 1.00000000 1.00000000 1.00000000
H 32.27017221 41.76275805 9.96773949 5953 283 0 1.00000000 1.00000000 1.00000000
H 30.13847168 42.63515173 10.11389514 5954 283 0 1.00000000 1.00000000 1.00000000
H 30.19130548 43.53097530 8.47769465 5955 283 0 1.00000000 1.00000000 1.00000000
H 31.84668850 45.12377393 9.22146146 5956 283 0 1.00000000 1.00000000 1.00000000
H 32.19478305 44.32177080 10.69094164 5957 283 0 1.00000000 1.00000000 1.00000000
H 29.21347374 45.32796004 10.06522801 5958 283 0 1.00000000 1.00000000 1.00000000
H 30.48133807 46.41731336 10.66290192 5959 283 0 1.00000000 1.00000000 1.00000000
H 30.74852899 45.16682490 12.88537828 5960 283 0 1.00000000 1.00000000 1.00000000
H 29.66283277 43.79948843 12.33149087 5961 283 0 1.00000000 1.00000000 1.00000000
H 29.09312539 45.52636738 12.58753500 5962 283 0 1.00000000 1.00000000 1.00000000
C 35.77283023 29.21523659 -6.84271568 5963 284 0 0.56500000 0.56500000 0.56500000
C 36.80332359 29.44370133 -5.70918087 5964 284 0 0.56500000 0.56500000 0.56500000
C 36.33381368 30.14301137 -4.47689200 5965 284 0 0.56500000 0.56500000 0.56500000
C 37.33459143 29.98683756 -3.28077595 5966 284 0 0.56500000 0.56500000 0.56500000
C 38.78317372 30.24486269 -3.66845491 5967 284 0 0.56500000 0.56500000 0.56500000
C 39.05266953 31.69230923 -4.17872827 5968 284 0 0.56500000 0.56500000 0.56500000
C 40.54942262 32.15520689 -4.20785227 5969 284 0 0.56500000 0.56500000 0.56500000
H 35.53446134 30.17976662 -7.24145001 5970 284 0 1.00000000 1.00000000 1.00000000
H 34.98737209 28.55777974 -6.40688452 5971 284 0 1.00000000 1.00000000 1.00000000
H 36.21485218 28.68037633 -7.71075414 5972 284 0 1.00000000 1.00000000 1.00000000
H 37.63968149 30.01187799 -6.21549117 5973 284 0 1.00000000 1.00000000 1.00000000
H 37.27717986 28.49098642 -5.40550825 5974 284 0 1.00000000 1.00000000 1.00000000
H 35.37419550 29.77887550 -4.18882211 5975 284 0 1.00000000 1.00000000 1.00000000
H 36.11901327 31.23623310 -4.74757122 5976 284 0 1.00000000 1.00000000 1.00000000
H 37.25518527 28.98349755 -2.91583846 5977 284 0 1.00000000 1.00000000 1.00000000
H 37.10122648 30.76272912 -2.49671291 5978 284 0 1.00000000 1.00000000 1.00000000
H 39.05691471 29.59080679 -4.45938263 5979 284 0 1.00000000 1.00000000 1.00000000
H 39.53264768 30.08074537 -2.86193906 5980 284 0 1.00000000 1.00000000 1.00000000
H 38.52476473 32.39349691 -3.45758697 5981 284 0 1.00000000 1.00000000 1.00000000
H 38.66205182 31.92142349 -5.17590073 5982 284 0 1.00000000 1.00000000 1.00000000
H 40.52613781 33.22662616 -4.42310513 5983 284 0 1.00000000 1.00000000 1.00000000
H 41.14569150 31.61607067 -4.94905245 5984 284 0 1.00000000 1.00000000 1.00000000
H 40.98473481 32.08077114 -3.23961212 5985 284 0 1.00000000 1.00000000 1.00000000
C 43.60549458 11.44853496 6.25231635 5986 285 0 0.56500000 0.56500000 0.56500000
C 42.97238171 10.99236121 7.53674925 5987 285 0 0.56500000 0.56500000 0.56500000
C 42.61627325 12.01465447 8.59896352 5988 285 0 0.56500000 0.56500000 0.56500000
C 41.56956946 11.63622300 9.60015712 5989 285 0 0.56500000 0.56500000 0.56500000
C 40.12291554 11.52349815 9.03405821 5990 285 0 0.56500000 0.56500000 0.56500000
C 39.13128422 11.07404823 10.16514157 5991 285 0 0.56500000 0.56500000 0.56500000
C 39.23409512 9.65151851 10.66514813 5992 285 0 0.56500000 0.56500000 0.56500000
H 43.59674668 10.79191915 5.43128686 5993 285 0 1.00000000 1.00000000 1.00000000
H 44.67228009 11.81412604 6.38503183 5994 285 0 1.00000000 1.00000000 1.00000000
H 43.15743120 12.38213264 5.81443688 5995 285 0 1.00000000 1.00000000 1.00000000
H 43.63333135 10.16980012 7.89676723 5996 285 0 1.00000000 1.00000000 1.00000000
H 42.12739448 10.34397391 7.32761898 5997 285 0 1.00000000 1.00000000 1.00000000
H 42.28476969 12.93577058 8.05067943 5998 285 0 1.00000000 1.00000000 1.00000000
H 43.59099492 12.35101439 8.99071895 5999 285 0 1.00000000 1.00000000 1.00000000
H 41.55831984 12.47189297 10.31063664 6000 285 0 1.00000000 1.00000000 1.00000000
H 41.69765283 10.72772620 10.13964293 6001 285 0 1.00000000 1.00000000 1.00000000
H 40.09664306 10.71628192 8.29498389 6002 285 0 1.00000000 1.00000000 1.00000000
H 39.83438917 12.47801511 8.59646905 6003 285 0 1.00000000 1.00000000 1.00000000
H 38.12490378 11.25834356 9.77193668 6004 285 0 1.00000000 1.00000000 1.00000000
H 39.27819911 11.80469041 10.90149372 6005 285 0 1.00000000 1.00000000 1.00000000
H 39.95848816 9.55251478 11.50926611 6006 285 0 1.00000000 1.00000000 1.00000000
H 39.50878309 8.94915573 9.83761120 6007 285 0 1.00000000 1.00000000 1.00000000
H 38.27625206 9.24465893 11.06114257 6008 285 0 1.00000000 1.00000000 1.00000000
C 30.16432310 35.72767308 7.47366183 6009 286 0 0.56500000 0.56500000 0.56500000
C 29.81558818 36.28206823 6.10063387 6010 286 0 0.56500000 0.56500000 0.56500000
C 30.54258008 37.68504618 5.94664665 6011 286 0 0.56500000 0.56500000 0.56500000
C 32.01953159 37.61880920 6.00437360 6012 286 0 0.56500000 0.56500000 0.56500000
C 32.73733324 37.26632681 4.61294018 6013 286 0 0.56500000 0.56500000 0.56500000
C 34.20450356 36.93445770 4.81586499 6014 286 0 0.56500000 0.56500000 0.56500000
C 34.95661954 36.77992487 3.55944151 6015 286 0 0.56500000 0.56500000 0.56500000
H 29.56026922 34.81963477 7.76307233 6016 286 0 1.00000000 1.00000000 1.00000000
H 29.92015026 36.39262639 8.32081655 6017 286 0 1.00000000 1.00000000 1.00000000
H 31.27139492 35.57384325 7.48692590 6018 286 0 1.00000000 1.00000000 1.00000000
H 28.73831600 36.46554008 6.04794583 6019 286 0 1.00000000 1.00000000 1.00000000
H 30.14406218 35.55287821 5.39976315 6020 286 0 1.00000000 1.00000000 1.00000000
H 30.30281141 38.17496984 6.88373533 6021 286 0 1.00000000 1.00000000 1.00000000
H 30.10223583 38.18236204 5.06354024 6022 286 0 1.00000000 1.00000000 1.00000000
H 32.37800110 36.90883551 6.79364485 6023 286 0 1.00000000 1.00000000 1.00000000
H 32.31951191 38.60527622 6.27792032 6024 286 0 1.00000000 1.00000000 1.00000000
H 32.49411955 37.96614663 3.83140311 6025 286 0 1.00000000 1.00000000 1.00000000
H 32.28058445 36.36177483 4.25914664 6026 286 0 1.00000000 1.00000000 1.00000000
H 34.12608550 36.03320089 5.40465536 6027 286 0 1.00000000 1.00000000 1.00000000
H 34.44869108 37.72376188 5.54799704 6028 286 0 1.00000000 1.00000000 1.00000000
H 35.06673061 37.81625651 3.20107110 6029 286 0 1.00000000 1.00000000 1.00000000
H 34.32360661 36.17225115 2.86545225 6030 286 0 1.00000000 1.00000000 1.00000000
H 35.98883114 36.43577367 3.69016581 6031 286 0 1.00000000 1.00000000 1.00000000
C 16.82165696 21.68405813 1.11536786 6032 287 0 0.56500000 0.56500000 0.56500000
C 18.02262218 21.89095383 2.15870563 6033 287 0 0.56500000 0.56500000 0.56500000
C 19.33316526 21.97434774 1.41513422 6034 287 0 0.56500000 0.56500000 0.56500000
C 20.54509929 21.67488543 2.28151338 6035 287 0 0.56500000 0.56500000 0.56500000
C 21.88426600 21.57576738 1.53071590 6036 287 0 0.56500000 0.56500000 0.56500000
C 21.82670206 20.58814043 0.35316627 6037 287 0 0.56500000 0.56500000 0.56500000
C 23.22356313 20.31809962 -0.23812540 6038 287 0 0.56500000 0.56500000 0.56500000
H 17.14635381 20.98056067 0.41983395 6039 287 0 1.00000000 1.00000000 1.00000000
H 16.66480550 22.61938391 0.63596030 6040 287 0 1.00000000 1.00000000 1.00000000
H 15.84717022 21.29577423 1.51891097 6041 287 0 1.00000000 1.00000000 1.00000000
H 18.03434659 21.08918891 2.87617394 6042 287 0 1.00000000 1.00000000 1.00000000
H 17.87892181 22.77498303 2.75578238 6043 287 0 1.00000000 1.00000000 1.00000000
H 19.47836723 22.93268575 1.02119015 6044 287 0 1.00000000 1.00000000 1.00000000
H 19.41685222 21.25998864 0.57039215 6045 287 0 1.00000000 1.00000000 1.00000000
H 20.38255296 20.83092178 2.91433421 6046 287 0 1.00000000 1.00000000 1.00000000
H 20.66459687 22.47575911 3.09167844 6047 287 0 1.00000000 1.00000000 1.00000000
H 22.65382561 21.27014061 2.18773651 6048 287 0 1.00000000 1.00000000 1.00000000
H 22.25957644 22.52653304 1.08911088 6049 287 0 1.00000000 1.00000000 1.00000000
H 21.13045319 20.78326586 -0.46252572 6050 287 0 1.00000000 1.00000000 1.00000000
H 21.50025092 19.67935343 0.81871499 6051 287 0 1.00000000 1.00000000 1.00000000
H 23.15393711 19.56049617 -1.02557518 6052 287 0 1.00000000 1.00000000 1.00000000
H 23.94307946 19.94241192 0.51728521 6053 287 0 1.00000000 1.00000000 1.00000000
H 23.67585730 21.17626539 -0.76634733 6054 287 0 1.00000000 1.00000000 1.00000000
C 19.02827167 48.04985768 39.31829965 6055 288 0 0.56500000 0.56500000 0.56500000
C 20.15397600 47.22405416 39.88568828 6056 288 0 0.56500000 0.56500000 0.56500000
C 21.47197496 47.98886415 40.04280771 6057 288 0 0.56500000 0.56500000 0.56500000
C 21.55022435 49.13967582 41.02915889 6058 288 0 0.56500000 0.56500000 0.56500000
C 21.02305687 48.84117558 42.38640373 6059 288 0 0.56500000 0.56500000 0.56500000
C 21.35623887 49.92996378 43.41859757 6060 288 0 0.56500000 0.56500000 0.56500000
C 21.00278639 49.48516561 44.81421456 6061 288 0 0.56500000 0.56500000 0.56500000
H 19.32483987 48.46571447 38.38224622 6062 288 0 1.00000000 1.00000000 1.00000000
H 18.52577355 48.73991711 40.01780526 6063 288 0 1.00000000 1.00000000 1.00000000
H 18.23213858 47.27891932 39.06342632 6064 288 0 1.00000000 1.00000000 1.00000000
H 20.24230094 46.44626896 39.17456011 6065 288 0 1.00000000 1.00000000 1.00000000
H 19.95160288 46.77191527 40.89520762 6066 288 0 1.00000000 1.00000000 1.00000000
H 21.79246122 48.29735376 39.07017664 6067 288 0 1.00000000 1.00000000 1.00000000
H 22.23697903 47.28886892 40.36971580 6068 288 0 1.00000000 1.00000000 1.00000000
H 20.99292145 49.94904596 40.57292314 6069 288 0 1.00000000 1.00000000 1.00000000
H 22.57762132 49.44817698 40.98478426 6070 288 0 1.00000000 1.00000000 1.00000000
H 21.58207227 47.91756359 42.68301509 6071 288 0 1.00000000 1.00000000 1.00000000
H 19.89924192 48.74971300 42.41203827 6072 288 0 1.00000000 1.00000000 1.00000000
H 20.77592421 50.83311045 43.17527199 6073 288 0 1.00000000 1.00000000 1.00000000
H 22.48509957 50.15640042 43.33927159 6074 288 0 1.00000000 1.00000000 1.00000000
H 21.41640817 48.50584848 45.04409086 6075 288 0 1.00000000 1.00000000 1.00000000
H 19.92667253 49.48836349 44.89248959 6076 288 0 1.00000000 1.00000000 1.00000000
H 21.48451686 50.16701064 45.53463365 6077 288 0 1.00000000 1.00000000 1.00000000
C 13.90178411 18.41557911 34.41133768 6078 289 0 0.56500000 0.56500000 0.56500000
C 15.30547555 18.83391510 34.11610660 6079 289 0 0.56500000 0.56500000 0.56500000
C 15.61616353 18.93952694 32.58745462 6080 289 0 0.56500000 0.56500000 0.56500000
C 17.09542276 19.25214108 32.36774776 6081 289 0 0.56500000 0.56500000 0.56500000
C 17.39778516 19.15600259 30.82936257 6082 289 0 0.56500000 0.56500000 0.56500000
C 18.86805796 19.21751664 30.52820409 6083 289 0 0.56500000 0.56500000 0.56500000
C 19.41052066 20.62272489 30.75174832 6084 289 0 0.56500000 0.56500000 0.56500000
H 13.69887656 17.33997069 34.21371968 6085 289 0 1.00000000 1.00000000 1.00000000
H 13.17547864 19.02623322 33.84763131 6086 289 0 1.00000000 1.00000000 1.00000000
H 13.64209780 18.55903007 35.49762839 6087 289 0 1.00000000 1.00000000 1.00000000
H 16.05495533 18.10131286 34.50244552 6088 289 0 1.00000000 1.00000000 1.00000000
H 15.62086565 19.79909276 34.50687141 6089 289 0 1.00000000 1.00000000 1.00000000
H 14.87527668 19.67030558 32.09825969 6090 289 0 1.00000000 1.00000000 1.00000000
H 15.41422010 17.99331148 32.00940770 6091 289 0 1.00000000 1.00000000 1.00000000
H 17.70868249 18.49880629 32.92402905 6092 289 0 1.00000000 1.00000000 1.00000000
H 17.32928033 20.23519230 32.72350596 6093 289 0 1.00000000 1.00000000 1.00000000
H 16.81408338 19.93200778 30.33266567 6094 289 0 1.00000000 1.00000000 1.00000000
H 16.96670050 18.27162177 30.36133180 6095 289 0 1.00000000 1.00000000 1.00000000
H 18.99469634 19.03577390 29.43552978 6096 289 0 1.00000000 1.00000000 1.00000000
H 19.35606069 18.36140020 31.00658303 6097 289 0 1.00000000 1.00000000 1.00000000
H 20.46832906 20.57880978 30.46265527 6098 289 0 1.00000000 1.00000000 1.00000000
H 19.35563732 20.93055444 31.77569069 6099 289 0 1.00000000 1.00000000 1.00000000
H 18.81741102 21.29042541 30.12774773 6100 289 0 1.00000000 1.00000000 1.00000000
C 17.56831026 13.81715374 10.29794439 6101 290 0 0.56500000 0.56500000 0.56500000
C 17.93461363 13.85786754 8.84860525 6102 290 0 0.56500000 0.56500000 0.56500000
C 18.28174551 12.46160796 8.27355010 6103 290 0 0.56500000 0.56500000 0.56500000
C 18.63092004 12.45645650 6.79240580 6104 290 0 0.56500000 0.56500000 0.56500000
C 17.50546044 12.82751311 5.85820058 6105 290 0 0.56500000 0.56500000 0.56500000
C 17.84018449 12.95012325 4.36296773 6106 290 0 0.56500000 0.56500000 0.56500000
C 16.92704427 13.90446799 3.62119703 6107 290 0 0.56500000 0.56500000 0.56500000
H 16.45468008 13.58041054 10.54250125 6108 290 0 1.00000000 1.00000000 1.00000000
H 17.72547772 14.82158632 10.80707658 6109 290 0 1.00000000 1.00000000 1.00000000
H 18.15632607 13.08040983 10.78366121 6110 290 0 1.00000000 1.00000000 1.00000000
H 18.69857921 14.59994507 8.72657929 6111 290 0 1.00000000 1.00000000 1.00000000
H 17.10505662 14.34414351 8.31473983 6112 290 0 1.00000000 1.00000000 1.00000000
H 17.31248536 11.99567029 8.44146480 6113 290 0 1.00000000 1.00000000 1.00000000
H 18.99649228 11.94359242 8.91924263 6114 290 0 1.00000000 1.00000000 1.00000000
H 18.93951107 11.38325934 6.64564862 6115 290 0 1.00000000 1.00000000 1.00000000
H 19.55560121 13.02402051 6.61107763 6116 290 0 1.00000000 1.00000000 1.00000000
H 17.23773411 13.81861678 6.32217654 6117 290 0 1.00000000 1.00000000 1.00000000
H 16.59348547 12.26490773 5.98843631 6118 290 0 1.00000000 1.00000000 1.00000000
H 17.89276106 11.97240888 3.93609501 6119 290 0 1.00000000 1.00000000 1.00000000
H 18.85426123 13.40807704 4.24032941 6120 290 0 1.00000000 1.00000000 1.00000000
H 17.04460817 14.91787702 4.01678996 6121 290 0 1.00000000 1.00000000 1.00000000
H 15.86138629 13.67397743 3.73139690 6122 290 0 1.00000000 1.00000000 1.00000000
H 17.13903473 13.82392343 2.47995078 6123 290 0 1.00000000 1.00000000 1.00000000
C 35.64310574 31.28340726 33.06234411 6124 291 0 0.56500000 0.56500000 0.56500000
C 35.54691923 32.76611030 32.72436407 6125 291 0 0.56500000 0.56500000 0.56500000
C 36.97641874 33.37934367 32.71245854 6126 291 0 0.56500000 0.56500000 0.56500000
C 36.88497276 34.89501644 32.51476435 6127 291 0 0.56500000 0.56500000 0.56500000
C 36.12239776 35.69454040 33.64766577 6128 291 0 0.56500000 0.56500000 0.56500000
C 35.62311666 37.12195257 33.26349713 6129 291 0 0.56500000 0.56500000 0.56500000
C 34.82564446 37.12904868 31.96692591 6130 291 0 0.56500000 0.56500000 0.56500000
H 36.35045157 31.07260221 33.88184447 6131 291 0 1.00000000 1.00000000 1.00000000
H 35.96825841 30.64382262 32.25184988 6132 291 0 1.00000000 1.00000000 1.00000000
H 34.70788029 30.91967720 33.44721664 6133 291 0 1.00000000 1.00000000 1.00000000
H 34.97369899 33.37561407 33.50255358 6134 291 0 1.00000000 1.00000000 1.00000000
H 35.12788575 32.89419517 31.70430456 6135 291 0 1.00000000 1.00000000 1.00000000
H 37.63966633 32.93937033 32.03057799 6136 291 0 1.00000000 1.00000000 1.00000000
H 37.46504280 33.09713899 33.72294153 6137 291 0 1.00000000 1.00000000 1.00000000
H 36.35674256 35.06468738 31.57821886 6138 291 0 1.00000000 1.00000000 1.00000000
H 37.81662198 35.41579936 32.40337306 6139 291 0 1.00000000 1.00000000 1.00000000
H 36.92979342 35.84184254 34.39845926 6140 291 0 1.00000000 1.00000000 1.00000000
H 35.37052795 35.05114762 34.15284998 6141 291 0 1.00000000 1.00000000 1.00000000
H 36.39563990 37.86528225 33.12964863 6142 291 0 1.00000000 1.00000000 1.00000000
H 35.01879808 37.42526235 34.07699180 6143 291 0 1.00000000 1.00000000 1.00000000
H 34.50426340 38.17195458 31.86198635 6144 291 0 1.00000000 1.00000000 1.00000000
H 33.98652424 36.39512324 32.06761436 6145 291 0 1.00000000 1.00000000 1.00000000
H 35.45271816 36.80324872 31.18857118 6146 291 0 1.00000000 1.00000000 1.00000000
C 16.56077222 23.41398231 33.78177755 6147 292 0 0.56500000 0.56500000 0.56500000
C 15.48322316 24.55399607 33.75779915 6148 292 0 0.56500000 0.56500000 0.56500000
C 16.04568380 25.93359812 33.32680431 6149 292 0 0.56500000 0.56500000 0.56500000
C 15.01511927 27.03503289 33.28477322 6150 292 0 0.56500000 0.56500000 0.56500000
C 15.48692816 28.33366034 32.79646912 6151 292 0 0.56500000 0.56500000 0.56500000
C 15.78399135 28.32002898 31.30874367 6152 292 0 0.56500000 0.56500000 0.56500000
C 16.15723300 29.67086285 30.87479065 6153 292 0 0.56500000 0.56500000 0.56500000
H 17.13781820 23.37551235 32.90374549 6154 292 0 1.00000000 1.00000000 1.00000000
H 16.08748810 22.51729218 34.05555936 6155 292 0 1.00000000 1.00000000 1.00000000
H 17.31340506 23.58829319 34.58546521 6156 292 0 1.00000000 1.00000000 1.00000000
H 15.06011113 24.70773051 34.80181868 6157 292 0 1.00000000 1.00000000 1.00000000
H 14.65385778 24.25668268 33.14218181 6158 292 0 1.00000000 1.00000000 1.00000000
H 16.48662012 25.70343701 32.32433938 6159 292 0 1.00000000 1.00000000 1.00000000
H 16.78119237 26.19300021 34.06496222 6160 292 0 1.00000000 1.00000000 1.00000000
H 14.65889482 27.16994067 34.29729122 6161 292 0 1.00000000 1.00000000 1.00000000
H 14.17258538 26.56932650 32.78339605 6162 292 0 1.00000000 1.00000000 1.00000000
H 16.40330136 28.57494382 33.39457831 6163 292 0 1.00000000 1.00000000 1.00000000
H 14.71209549 29.08919874 32.91269440 6164 292 0 1.00000000 1.00000000 1.00000000
H 14.89884255 27.96690469 30.74459085 6165 292 0 1.00000000 1.00000000 1.00000000
H 16.60319836 27.53767913 31.05255626 6166 292 0 1.00000000 1.00000000 1.00000000
H 17.10423015 29.98699989 31.28439404 6167 292 0 1.00000000 1.00000000 1.00000000
H 15.41598612 30.42414502 31.19021351 6168 292 0 1.00000000 1.00000000 1.00000000
H 16.09722368 29.69629100 29.73717218 6169 292 0 1.00000000 1.00000000 1.00000000
C 44.15159235 32.38485213 -2.12827681 6170 293 0 0.56500000 0.56500000 0.56500000
C 44.02939878 33.67287086 -2.98337602 6171 293 0 0.56500000 0.56500000 0.56500000
C 44.01738135 34.88684903 -2.11129264 6172 293 0 0.56500000 0.56500000 0.56500000
C 43.75181888 36.17025504 -2.97551297 6173 293 0 0.56500000 0.56500000 0.56500000
C 42.26074560 36.26584349 -3.47057374 6174 293 0 0.56500000 0.56500000 0.56500000
C 41.97294684 37.53981469 -4.34088877 6175 293 0 0.56500000 0.56500000 0.56500000
C 40.64360355 37.57040773 -5.10148782 6176 293 0 0.56500000 0.56500000 0.56500000
H 44.89328653 32.60128538 -1.29875338 6177 293 0 1.00000000 1.00000000 1.00000000
H 44.59187900 31.67638831 -2.76271793 6178 293 0 1.00000000 1.00000000 1.00000000
H 43.19099058 32.14788576 -1.67617002 6179 293 0 1.00000000 1.00000000 1.00000000
H 43.07588829 33.49058707 -3.62738999 6180 293 0 1.00000000 1.00000000 1.00000000
H 44.84286232 33.70741604 -3.67726351 6181 293 0 1.00000000 1.00000000 1.00000000
H 44.94642064 34.94360673 -1.55820394 6182 293 0 1.00000000 1.00000000 1.00000000
H 43.33416393 34.75402157 -1.28624652 6183 293 0 1.00000000 1.00000000 1.00000000
H 44.43775457 36.03288347 -3.76376947 6184 293 0 1.00000000 1.00000000 1.00000000
H 43.98275800 37.10930881 -2.44595540 6185 293 0 1.00000000 1.00000000 1.00000000
H 41.55379986 36.33100297 -2.59404022 6186 293 0 1.00000000 1.00000000 1.00000000
H 42.01557772 35.41114984 -4.17330563 6187 293 0 1.00000000 1.00000000 1.00000000
H 42.81112208 37.71352739 -4.96436813 6188 293 0 1.00000000 1.00000000 1.00000000
H 42.03469947 38.42069945 -3.69105782 6189 293 0 1.00000000 1.00000000 1.00000000
H 39.79155920 37.33358443 -4.45469765 6190 293 0 1.00000000 1.00000000 1.00000000
H 40.59514824 36.89730748 -5.93326530 6191 293 0 1.00000000 1.00000000 1.00000000
H 40.42345909 38.48795299 -5.56688511 6192 293 0 1.00000000 1.00000000 1.00000000
C 12.28117886 44.63407210 -0.21215369 6193 294 0 0.56500000 0.56500000 0.56500000
C 11.20290574 43.59343386 -0.48027319 6194 294 0 0.56500000 0.56500000 0.56500000
C 11.09234791 42.57626303 0.75938470 6195 294 0 0.56500000 0.56500000 0.56500000
C 9.81309980 41.79337533 0.57069334 6196 294 0 0.56500000 0.56500000 0.56500000
C 9.46347903 40.81632912 1.74171453 6197 294 0 0.56500000 0.56500000 0.56500000
C 10.37082521 39.60330200 1.61145282 6198 294 0 0.56500000 0.56500000 0.56500000
C 10.44073660 38.70640952 2.79030761 6199 294 0 0.56500000 0.56500000 0.56500000
H 12.10499450 45.35508294 0.51669038 6200 294 0 1.00000000 1.00000000 1.00000000
H 12.50091875 45.10820523 -1.25462122 6201 294 0 1.00000000 1.00000000 1.00000000
H 13.18570054 44.11004512 0.08354532 6202 294 0 1.00000000 1.00000000 1.00000000
H 11.51669312 42.92484146 -1.41363179 6203 294 0 1.00000000 1.00000000 1.00000000
H 10.32585510 44.06743946 -0.79874858 6204 294 0 1.00000000 1.00000000 1.00000000
H 11.20443936 43.18606847 1.66909751 6205 294 0 1.00000000 1.00000000 1.00000000
H 12.01167417 41.98467298 0.84124704 6206 294 0 1.00000000 1.00000000 1.00000000
H 9.84880427 41.13651954 -0.31053756 6207 294 0 1.00000000 1.00000000 1.00000000
H 8.99172862 42.52781635 0.30421842 6208 294 0 1.00000000 1.00000000 1.00000000
H 8.41111256 40.53045975 1.63938046 6209 294 0 1.00000000 1.00000000 1.00000000
H 9.58543465 41.24253024 2.74489679 6210 294 0 1.00000000 1.00000000 1.00000000
H 11.38076174 39.95208052 1.28009216 6211 294 0 1.00000000 1.00000000 1.00000000
H 10.02644401 38.98269864 0.77706552 6212 294 0 1.00000000 1.00000000 1.00000000
H 10.65467017 39.14067642 3.77016202 6213 294 0 1.00000000 1.00000000 1.00000000
H 11.08241954 37.80346535 2.56541637 6214 294 0 1.00000000 1.00000000 1.00000000
H 9.44175462 38.22491559 2.98470685 6215 294 0 1.00000000 1.00000000 1.00000000
C 29.96563161 35.68966248 11.42416089 6216 295 0 0.56500000 0.56500000 0.56500000
C 29.12960334 36.34065489 12.47353817 6217 295 0 0.56500000 0.56500000 0.56500000
C 29.57777622 37.74904603 12.69415612 6218 295 0 0.56500000 0.56500000 0.56500000
C 28.71533442 38.45451604 13.82085945 6219 295 0 0.56500000 0.56500000 0.56500000
C 29.35875989 39.85286903 13.95919363 6220 295 0 0.56500000 0.56500000 0.56500000
C 28.73112521 40.60993525 15.10651424 6221 295 0 0.56500000 0.56500000 0.56500000
C 28.98399238 39.97463628 16.47544307 6222 295 0 0.56500000 0.56500000 0.56500000
H 29.92085985 36.17934690 10.48279917 6223 295 0 1.00000000 1.00000000 1.00000000
H 29.57289258 34.75783111 11.10599381 6224 295 0 1.00000000 1.00000000 1.00000000
H 31.00262035 35.52303622 11.75728541 6225 295 0 1.00000000 1.00000000 1.00000000
H 29.12455146 35.80536106 13.46196859 6226 295 0 1.00000000 1.00000000 1.00000000
H 28.07300797 36.41588221 12.26076819 6227 295 0 1.00000000 1.00000000 1.00000000
H 29.67588161 38.37531041 11.79510115 6228 295 0 1.00000000 1.00000000 1.00000000
H 30.62459853 37.78820692 13.13677051 6229 295 0 1.00000000 1.00000000 1.00000000
H 28.64713826 37.96887974 14.71975135 6230 295 0 1.00000000 1.00000000 1.00000000
H 27.68738303 38.69417874 13.44774028 6231 295 0 1.00000000 1.00000000 1.00000000
H 29.12833837 40.33512927 12.97429521 6232 295 0 1.00000000 1.00000000 1.00000000
H 30.39896839 39.66482112 14.11939713 6233 295 0 1.00000000 1.00000000 1.00000000
H 27.61504707 40.76379760 14.87062648 6234 295 0 1.00000000 1.00000000 1.00000000
H 29.17027274 41.61818110 15.19919467 6235 295 0 1.00000000 1.00000000 1.00000000
H 28.95882881 38.86850931 16.49375268 6236 295 0 1.00000000 1.00000000 1.00000000
H 28.32773618 40.34082150 17.31454261 6237 295 0 1.00000000 1.00000000 1.00000000
H 30.01161029 40.10038207 16.76624870 6238 295 0 1.00000000 1.00000000 1.00000000
C 39.05484028 12.26929906 -7.37333521 6239 296 0 0.56500000 0.56500000 0.56500000
C 38.03415112 13.29873839 -6.70556288 6240 296 0 0.56500000 0.56500000 0.56500000
C 37.24463987 14.09376906 -7.74458905 6241 296 0 0.56500000 0.56500000 0.56500000
C 36.19603819 15.03891747 -7.13701175 6242 296 0 0.56500000 0.56500000 0.56500000
C 35.61247212 16.00488609 -8.18778142 6243 296 0 0.56500000 0.56500000 0.56500000
C 34.08946021 16.30735541 -8.02549062 6244 296 0 0.56500000 0.56500000 0.56500000
C 33.17968150 15.11880586 -8.28199873 6245 296 0 0.56500000 0.56500000 0.56500000
H 39.90100044 11.92892509 -6.72533590 6246 296 0 1.00000000 1.00000000 1.00000000
H 39.41524834 12.65536000 -8.28233459 6247 296 0 1.00000000 1.00000000 1.00000000
H 38.50308610 11.34958575 -7.59652124 6248 296 0 1.00000000 1.00000000 1.00000000
H 38.52647302 14.03478349 -6.06715899 6249 296 0 1.00000000 1.00000000 1.00000000
H 37.35795045 12.71846529 -6.04700985 6250 296 0 1.00000000 1.00000000 1.00000000
H 36.65330725 13.42649020 -8.43397392 6251 296 0 1.00000000 1.00000000 1.00000000
H 37.92819886 14.56691914 -8.45406692 6252 296 0 1.00000000 1.00000000 1.00000000
H 36.37630052 15.59169435 -6.22872540 6253 296 0 1.00000000 1.00000000 1.00000000
H 35.41715324 14.37822478 -6.69980104 6254 296 0 1.00000000 1.00000000 1.00000000
H 35.77044024 15.56214808 -9.26155540 6255 296 0 1.00000000 1.00000000 1.00000000
H 36.19367885 16.96740273 -8.24227884 6256 296 0 1.00000000 1.00000000 1.00000000
H 33.77886433 17.13062848 -8.64381259 6257 296 0 1.00000000 1.00000000 1.00000000
H 33.91746111 16.70589049 -7.01134860 6258 296 0 1.00000000 1.00000000 1.00000000
H 33.19335386 14.38401621 -7.42555239 6259 296 0 1.00000000 1.00000000 1.00000000
H 33.67482383 14.65086098 -9.16478342 6260 296 0 1.00000000 1.00000000 1.00000000
H 32.12254249 15.41062179 -8.54386288 6261 296 0 1.00000000 1.00000000 1.00000000
C 31.38186170 18.88617925 -6.98839620 6262 297 0 0.56500000 0.56500000 0.56500000
C 31.89149356 18.50737827 -5.65910140 6263 297 0 0.56500000 0.56500000 0.56500000
C 33.26566297 19.13839378 -5.37018047 6264 297 0 0.56500000 0.56500000 0.56500000
C 33.07997033 20.66195871 -4.99333357 6265 297 0 0.56500000 0.56500000 0.56500000
C 32.38404842 21.01323819 -3.72455841 6266 297 0 0.56500000 0.56500000 0.56500000
C 32.25018414 22.48644023 -3.41312107 6267 297 0 0.56500000 0.56500000 0.56500000
C 31.44546991 22.78935242 -2.14816542 6268 297 0 0.56500000 0.56500000 0.56500000
H 31.00602420 19.90627758 -7.03042117 6269 297 0 1.00000000 1.00000000 1.00000000
H 30.57938034 18.27190836 -7.39925464 6270 297 0 1.00000000 1.00000000 1.00000000
H 32.26981967 18.89773571 -7.65106093 6271 297 0 1.00000000 1.00000000 1.00000000
H 31.94556821 17.47291708 -5.47977643 6272 297 0 1.00000000 1.00000000 1.00000000
H 31.25597342 18.83723180 -4.80933628 6273 297 0 1.00000000 1.00000000 1.00000000
H 33.75199855 19.15175519 -6.37908487 6274 297 0 1.00000000 1.00000000 1.00000000
H 33.92061710 18.55738704 -4.66704846 6275 297 0 1.00000000 1.00000000 1.00000000
H 32.68730785 21.12293240 -5.84207109 6276 297 0 1.00000000 1.00000000 1.00000000
H 34.11661994 21.10993323 -4.86775982 6277 297 0 1.00000000 1.00000000 1.00000000
H 32.81289450 20.60098679 -2.80555659 6278 297 0 1.00000000 1.00000000 1.00000000
H 31.33696009 20.59753731 -3.75733522 6279 297 0 1.00000000 1.00000000 1.00000000
H 31.75622160 22.92826498 -4.23842381 6280 297 0 1.00000000 1.00000000 1.00000000
H 33.22176859 22.94134187 -3.33281175 6281 297 0 1.00000000 1.00000000 1.00000000
H 31.56102607 23.88450977 -1.91146732 6282 297 0 1.00000000 1.00000000 1.00000000
H 31.86011270 22.23172292 -1.25034593 6283 297 0 1.00000000 1.00000000 1.00000000
H 30.42488759 22.43434381 -2.19978292 6284 297 0 1.00000000 1.00000000 1.00000000
C 4.81798615 8.42694060 9.34336141 6285 298 0 0.56500000 0.56500000 0.56500000
C 4.88231518 7.79918937 10.72555489 6286 298 0 0.56500000 0.56500000 0.56500000
C 5.25328491 8.65600890 11.83234864 6287 298 0 0.56500000 0.56500000 0.56500000
C 5.04368236 8.09128122 13.25256050 6288 298 0 0.56500000 0.56500000 0.56500000
C 4.84236762 9.12666266 14.32215771 6289 298 0 0.56500000 0.56500000 0.56500000
C 5.99566686 10.01258622 14.66422953 6290 298 0 0.56500000 0.56500000 0.56500000
C 7.27111542 9.28361813 15.05581962 6291 298 0 0.56500000 0.56500000 0.56500000
H 5.74574127 8.88172884 9.03419720 6292 298 0 1.00000000 1.00000000 1.00000000
H 4.00560739 9.16624702 9.24056460 6293 298 0 1.00000000 1.00000000 1.00000000
H 4.57352905 7.67049406 8.64451902 6294 298 0 1.00000000 1.00000000 1.00000000
H 5.56532905 7.00500839 10.61608293 6295 298 0 1.00000000 1.00000000 1.00000000
H 3.85443874 7.44718035 10.88354635 6296 298 0 1.00000000 1.00000000 1.00000000
H 4.54437872 9.51209616 11.82649463 6297 298 0 1.00000000 1.00000000 1.00000000
H 6.29418305 9.13350253 11.74982858 6298 298 0 1.00000000 1.00000000 1.00000000
H 5.84646358 7.43648606 13.47879409 6299 298 0 1.00000000 1.00000000 1.00000000
H 4.12921422 7.47156151 13.11472729 6300 298 0 1.00000000 1.00000000 1.00000000
H 4.52681301 8.63428291 15.27498003 6301 298 0 1.00000000 1.00000000 1.00000000
H 4.02173441 9.87549033 14.10544437 6302 298 0 1.00000000 1.00000000 1.00000000
H 5.57005354 10.69727688 15.46899189 6303 298 0 1.00000000 1.00000000 1.00000000
H 6.27640778 10.81989056 13.93690754 6304 298 0 1.00000000 1.00000000 1.00000000
H 7.09160704 8.65614521 15.84542496 6305 298 0 1.00000000 1.00000000 1.00000000
H 8.12450555 9.97824600 15.34670330 6306 298 0 1.00000000 1.00000000 1.00000000
H 7.70944342 8.61664198 14.25491784 6307 298 0 1.00000000 1.00000000 1.00000000
C 6.20343566 9.98902339 32.09465584 6308 299 0 0.56500000 0.56500000 0.56500000
C 6.78289478 10.50004582 33.39246980 6309 299 0 0.56500000 0.56500000 0.56500000
C 8.31248083 10.87936595 33.38520524 6310 299 0 0.56500000 0.56500000 0.56500000
C 9.26230424 9.72693642 33.00291084 6311 299 0 0.56500000 0.56500000 0.56500000
C 10.64449301 10.31316952 32.84294652 6312 299 0 0.56500000 0.56500000 0.56500000
C 11.71965369 9.34275209 32.29886096 6313 299 0 0.56500000 0.56500000 0.56500000
C 11.47413798 9.03809735 30.84577914 6314 299 0 0.56500000 0.56500000 0.56500000
H 6.83940954 10.38768913 31.22073595 6315 299 0 1.00000000 1.00000000 1.00000000
H 5.15094052 10.23224200 31.98857484 6316 299 0 1.00000000 1.00000000 1.00000000
H 6.22404019 8.86992088 31.98911816 6317 299 0 1.00000000 1.00000000 1.00000000
H 6.61794420 9.78620493 34.20848591 6318 299 0 1.00000000 1.00000000 1.00000000
H 6.09898395 11.37395135 33.67819638 6319 299 0 1.00000000 1.00000000 1.00000000
H 8.79007386 11.29136139 34.31118976 6320 299 0 1.00000000 1.00000000 1.00000000
H 8.39022257 11.75940790 32.71662234 6321 299 0 1.00000000 1.00000000 1.00000000
H 9.05715721 9.22221395 32.06035587 6322 299 0 1.00000000 1.00000000 1.00000000
H 9.09273284 8.98934061 33.81098367 6323 299 0 1.00000000 1.00000000 1.00000000
H 10.96667770 10.69472572 33.81466238 6324 299 0 1.00000000 1.00000000 1.00000000
H 10.55692695 11.12587131 32.13640532 6325 299 0 1.00000000 1.00000000 1.00000000
H 11.73836891 8.38639465 32.84592444 6326 299 0 1.00000000 1.00000000 1.00000000
H 12.74300579 9.85414913 32.41199046 6327 299 0 1.00000000 1.00000000 1.00000000
H 12.34440864 8.51093102 30.29977806 6328 299 0 1.00000000 1.00000000 1.00000000
H 11.17577528 9.95958955 30.30851663 6329 299 0 1.00000000 1.00000000 1.00000000
H 10.59200804 8.39295166 30.76529847 6330 299 0 1.00000000 1.00000000 1.00000000
C 37.74483346 7.87141617 28.98947945 6331 300 0 0.56500000 0.56500000 0.56500000
C 38.01617154 7.24292832 27.61094948 6332 300 0 0.56500000 0.56500000 0.56500000
C 38.80035610 8.19486075 26.69033418 6333 300 0 0.56500000 0.56500000 0.56500000
C 40.18896276 8.41578489 27.22476074 6334 300 0 0.56500000 0.56500000 0.56500000
C 41.30747145 9.18973970 26.29598265 6335 300 0 0.56500000 0.56500000 0.56500000
C 42.68787004 8.89776299 26.72831011 6336 300 0 0.56500000 0.56500000 0.56500000
C 43.71549464 9.53513708 25.87584927 6337 300 0 0.56500000 0.56500000 0.56500000
H 37.49855990 7.03270773 29.60608508 6338 300 0 1.00000000 1.00000000 1.00000000
H 36.95988680 8.58418414 28.89389575 6339 300 0 1.00000000 1.00000000 1.00000000
H 38.70554918 8.33118779 29.30853183 6340 300 0 1.00000000 1.00000000 1.00000000
H 37.10445582 6.98810170 27.15103059 6341 300 0 1.00000000 1.00000000 1.00000000
H 38.57971399 6.32082991 27.63967006 6342 300 0 1.00000000 1.00000000 1.00000000
H 38.28258736 9.19009938 26.64507845 6343 300 0 1.00000000 1.00000000 1.00000000
H 38.82828791 7.74653174 25.65561336 6344 300 0 1.00000000 1.00000000 1.00000000
H 40.61226359 7.38685690 27.43400942 6345 300 0 1.00000000 1.00000000 1.00000000
H 40.24904721 8.95980551 28.20797246 6346 300 0 1.00000000 1.00000000 1.00000000
H 41.03998484 10.22535951 26.33742268 6347 300 0 1.00000000 1.00000000 1.00000000
H 41.06600343 8.90995806 25.31194159 6348 300 0 1.00000000 1.00000000 1.00000000
H 42.80312574 7.82287934 26.79151818 6349 300 0 1.00000000 1.00000000 1.00000000
H 42.97650803 9.16287482 27.76599497 6350 300 0 1.00000000 1.00000000 1.00000000
H 43.67531405 10.62604350 25.97163101 6351 300 0 1.00000000 1.00000000 1.00000000
H 43.59098047 9.13720618 24.92001808 6352 300 0 1.00000000 1.00000000 1.00000000
H 44.68525932 9.15528711 26.10357903 6353 300 0 1.00000000 1.00000000 1.00000000
C 9.78936585 6.52478563 2.51720316 6354 301 0 0.56500000 0.56500000 0.56500000
C 8.79868222 5.41393359 2.14901763 6355 301 0 0.56500000 0.56500000 0.56500000
C 9.34092407 3.93574255 2.17922493 6356 301 0 0.56500000 0.56500000 0.56500000
C 9.18956522 3.31517230 3.54094031 6357 301 0 0.56500000 0.56500000 0.56500000
C 10.22059299 3.70601682 4.59378457 6358 301 0 0.56500000 0.56500000 0.56500000
C 10.21068579 2.79553384 5.76553359 6359 301 0 0.56500000 0.56500000 0.56500000
C 11.48879396 2.92987850 6.55423036 6360 301 0 0.56500000 0.56500000 0.56500000
H 9.23183504 7.42140764 2.57963130 6361 301 0 1.00000000 1.00000000 1.00000000
H 10.63941482 6.51606013 1.84893107 6362 301 0 1.00000000 1.00000000 1.00000000
H 10.20340435 6.34071980 3.49268766 6363 301 0 1.00000000 1.00000000 1.00000000
H 8.23240783 5.52279267 1.16181169 6364 301 0 1.00000000 1.00000000 1.00000000
H 7.95002850 5.44979407 2.85081924 6365 301 0 1.00000000 1.00000000 1.00000000
H 10.37952811 3.76306594 1.72458276 6366 301 0 1.00000000 1.00000000 1.00000000
H 8.71627432 3.31404911 1.48568566 6367 301 0 1.00000000 1.00000000 1.00000000
H 9.28640755 2.25513241 3.43445711 6368 301 0 1.00000000 1.00000000 1.00000000
H 8.14483748 3.48255228 3.83646752 6369 301 0 1.00000000 1.00000000 1.00000000
H 10.05674877 4.72780070 4.87603802 6370 301 0 1.00000000 1.00000000 1.00000000
H 11.18958405 3.68067957 4.14639893 6371 301 0 1.00000000 1.00000000 1.00000000
H 9.89566054 1.81651870 5.46299928 6372 301 0 1.00000000 1.00000000 1.00000000
H 9.48032962 3.15045089 6.53637458 6373 301 0 1.00000000 1.00000000 1.00000000
H 12.30254237 2.66635354 5.92358662 6374 301 0 1.00000000 1.00000000 1.00000000
H 11.59505711 2.28779724 7.43073846 6375 301 0 1.00000000 1.00000000 1.00000000
H 11.65440501 3.94047100 6.94009130 6376 301 0 1.00000000 1.00000000 1.00000000
C 39.30644305 31.43149061 10.53880161 6377 302 0 0.56500000 0.56500000 0.56500000
C 38.87476778 29.97938916 10.61899511 6378 302 0 0.56500000 0.56500000 0.56500000
C 37.37210319 29.95501850 10.76039183 6379 302 0 0.56500000 0.56500000 0.56500000
C 36.76241979 28.67239745 11.36107936 6380 302 0 0.56500000 0.56500000 0.56500000
C 35.29154492 28.73773189 11.70230768 6381 302 0 0.56500000 0.56500000 0.56500000
C 34.36661912 28.79438860 10.43645858 6382 302 0 0.56500000 0.56500000 0.56500000
C 33.13681489 27.86389364 10.65255142 6383 302 0 0.56500000 0.56500000 0.56500000
H 40.43458425 31.54831896 10.61948432 6384 302 0 1.00000000 1.00000000 1.00000000
H 39.00641005 31.95339013 11.48830970 6385 302 0 1.00000000 1.00000000 1.00000000
H 38.87124523 31.95309169 9.63454040 6386 302 0 1.00000000 1.00000000 1.00000000
H 39.33668780 29.56028436 11.56519240 6387 302 0 1.00000000 1.00000000 1.00000000
H 39.13392791 29.39422541 9.75176369 6388 302 0 1.00000000 1.00000000 1.00000000
H 37.02704198 29.98394656 9.71867735 6389 302 0 1.00000000 1.00000000 1.00000000
H 37.04291207 30.83121071 11.42588683 6390 302 0 1.00000000 1.00000000 1.00000000
H 37.27239810 28.39250668 12.25908243 6391 302 0 1.00000000 1.00000000 1.00000000
H 37.00748760 27.80308220 10.72576457 6392 302 0 1.00000000 1.00000000 1.00000000
H 35.11731499 29.63003395 12.31920637 6393 302 0 1.00000000 1.00000000 1.00000000
H 34.88891378 27.94872699 12.26375618 6394 302 0 1.00000000 1.00000000 1.00000000
H 34.90411114 28.33911277 9.52205095 6395 302 0 1.00000000 1.00000000 1.00000000
H 33.94507859 29.74395061 10.08236049 6396 302 0 1.00000000 1.00000000 1.00000000
H 32.49991836 28.24039320 11.44467808 6397 302 0 1.00000000 1.00000000 1.00000000
H 33.46410933 26.85974038 10.90342350 6398 302 0 1.00000000 1.00000000 1.00000000
H 32.58575066 27.81235376 9.73853165 6399 302 0 1.00000000 1.00000000 1.00000000
C 43.20679353 39.37211812 26.03471400 6400 303 0 0.56500000 0.56500000 0.56500000
C 44.72438874 39.27829988 26.29502330 6401 303 0 0.56500000 0.56500000 0.56500000
C 45.67093433 39.56339574 25.19523931 6402 303 0 0.56500000 0.56500000 0.56500000
C 47.03855066 38.87713428 25.41857546 6403 303 0 0.56500000 0.56500000 0.56500000
C 48.00308887 38.94860749 24.19296112 6404 303 0 0.56500000 0.56500000 0.56500000
C 48.83836864 40.25009518 24.04316265 6405 303 0 0.56500000 0.56500000 0.56500000
C 49.89482765 39.94177889 23.01924885 6406 303 0 0.56500000 0.56500000 0.56500000
H 42.59814477 39.30704675 26.93291895 6407 303 0 1.00000000 1.00000000 1.00000000
H 42.89876387 38.58066542 25.39618657 6408 303 0 1.00000000 1.00000000 1.00000000
H 42.90126464 40.24628222 25.51580049 6409 303 0 1.00000000 1.00000000 1.00000000
H 44.98859296 38.27733224 26.61277957 6410 303 0 1.00000000 1.00000000 1.00000000
H 44.91219036 39.85355994 27.24256993 6411 303 0 1.00000000 1.00000000 1.00000000
H 45.76305706 40.67879717 25.05171704 6412 303 0 1.00000000 1.00000000 1.00000000
H 45.23516596 39.14284314 24.26520339 6413 303 0 1.00000000 1.00000000 1.00000000
H 46.85312496 37.85089159 25.74386031 6414 303 0 1.00000000 1.00000000 1.00000000
H 47.55920472 39.47098789 26.20358818 6415 303 0 1.00000000 1.00000000 1.00000000
H 47.46053667 38.71923266 23.22582120 6416 303 0 1.00000000 1.00000000 1.00000000
H 48.68706076 38.13804821 24.37007557 6417 303 0 1.00000000 1.00000000 1.00000000
H 49.20991368 40.44708978 25.05920826 6418 303 0 1.00000000 1.00000000 1.00000000
H 48.19635354 41.09810705 23.71677418 6419 303 0 1.00000000 1.00000000 1.00000000
H 50.56692194 40.82124929 22.89036627 6420 303 0 1.00000000 1.00000000 1.00000000
H 49.41277353 39.76840944 22.06304018 6421 303 0 1.00000000 1.00000000 1.00000000
H 50.46898198 39.05539337 23.40328915 6422 303 0 1.00000000 1.00000000 1.00000000
C 7.10201166 23.20093052 45.56360147 6423 304 0 0.56500000 0.56500000 0.56500000
C 8.42030820 22.67202562 44.97366874 6424 304 0 0.56500000 0.56500000 0.56500000
C 8.16902252 21.98252927 43.57106694 6425 304 0 0.56500000 0.56500000 0.56500000
C 9.41604126 21.43086791 42.79957932 6426 304 0 0.56500000 0.56500000 0.56500000
C 10.53444346 22.50300380 42.70129263 6427 304 0 0.56500000 0.56500000 0.56500000
C 11.77028633 22.05794779 41.91753537 6428 304 0 0.56500000 0.56500000 0.56500000
C 12.89196465 23.15911857 41.99907908 6429 304 0 0.56500000 0.56500000 0.56500000
H 6.39625407 23.63185305 44.82819239 6430 304 0 1.00000000 1.00000000 1.00000000
H 7.15786190 23.93993079 46.38526810 6431 304 0 1.00000000 1.00000000 1.00000000
H 6.43329031 22.31693378 45.91667190 6432 304 0 1.00000000 1.00000000 1.00000000
H 8.72378253 21.87803855 45.65402328 6433 304 0 1.00000000 1.00000000 1.00000000
H 9.25110284 23.39699501 44.79981557 6434 304 0 1.00000000 1.00000000 1.00000000
H 7.62198940 22.67083168 42.86128740 6435 304 0 1.00000000 1.00000000 1.00000000
H 7.43655031 21.22707362 43.75771587 6436 304 0 1.00000000 1.00000000 1.00000000
H 9.08377162 21.09667167 41.84192520 6437 304 0 1.00000000 1.00000000 1.00000000
H 9.85780639 20.54088877 43.27994324 6438 304 0 1.00000000 1.00000000 1.00000000
H 10.86436236 22.73513571 43.67006484 6439 304 0 1.00000000 1.00000000 1.00000000
H 10.05961167 23.39104165 42.24717195 6440 304 0 1.00000000 1.00000000 1.00000000
H 11.55066303 21.93109897 40.87843924 6441 304 0 1.00000000 1.00000000 1.00000000
H 12.15126791 21.07648240 42.23201651 6442 304 0 1.00000000 1.00000000 1.00000000
H 13.87605649 22.88585213 41.56600846 6443 304 0 1.00000000 1.00000000 1.00000000
H 13.05415853 23.32165582 43.12360808 6444 304 0 1.00000000 1.00000000 1.00000000
H 12.54155390 24.03461935 41.48466083 6445 304 0 1.00000000 1.00000000 1.00000000
C 40.66238458 27.44958474 18.05656969 6446 305 0 0.56500000 0.56500000 0.56500000
C 41.31598008 27.94744618 19.29342688 6447 305 0 0.56500000 0.56500000 0.56500000
C 41.91438059 27.04688944 20.34873531 6448 305 0 0.56500000 0.56500000 0.56500000
C 40.98928708 25.88180851 20.78791158 6449 305 0 0.56500000 0.56500000 0.56500000
C 39.63760065 26.38770458 21.38801355 6450 305 0 0.56500000 0.56500000 0.56500000
C 38.78689376 25.26309666 21.94950453 6451 305 0 0.56500000 0.56500000 0.56500000
C 39.34774619 24.53465893 23.15908529 6452 305 0 0.56500000 0.56500000 0.56500000
H 41.29658999 26.79590435 17.51083993 6453 305 0 1.00000000 1.00000000 1.00000000
H 40.59431079 28.34389536 17.36460715 6454 305 0 1.00000000 1.00000000 1.00000000
H 39.68874335 26.95482051 18.11509283 6455 305 0 1.00000000 1.00000000 1.00000000
H 40.55569264 28.53074913 19.78554227 6456 305 0 1.00000000 1.00000000 1.00000000
H 42.02134625 28.68525925 18.90087650 6457 305 0 1.00000000 1.00000000 1.00000000
H 42.30471114 27.65953305 21.15828817 6458 305 0 1.00000000 1.00000000 1.00000000
H 42.83950390 26.60588454 20.00935731 6459 305 0 1.00000000 1.00000000 1.00000000
H 41.52591036 25.30275509 21.55372155 6460 305 0 1.00000000 1.00000000 1.00000000
H 40.78773760 25.20303527 19.93152246 6461 305 0 1.00000000 1.00000000 1.00000000
H 39.09764302 26.90863885 20.63974622 6462 305 0 1.00000000 1.00000000 1.00000000
H 39.78857810 27.19795912 22.16212708 6463 305 0 1.00000000 1.00000000 1.00000000
H 38.54489861 24.52155040 21.12078589 6464 305 0 1.00000000 1.00000000 1.00000000
H 37.81244064 25.66247461 22.16478226 6465 305 0 1.00000000 1.00000000 1.00000000
H 38.54927528 23.83985825 23.47585872 6466 305 0 1.00000000 1.00000000 1.00000000
H 39.49593181 25.13430666 24.08431973 6467 305 0 1.00000000 1.00000000 1.00000000
H 40.20629658 23.90540121 22.93170879 6468 305 0 1.00000000 1.00000000 1.00000000
C 39.17543191 26.06365774 12.72526165 6469 306 0 0.56500000 0.56500000 0.56500000
C 40.64883401 26.10445111 13.03199727 6470 306 0 0.56500000 0.56500000 0.56500000
C 41.26350781 24.72284892 13.15060369 6471 306 0 0.56500000 0.56500000 0.56500000
C 40.66517782 23.89830756 14.28495927 6472 306 0 0.56500000 0.56500000 0.56500000
C 41.41149071 22.60098648 14.66689024 6473 306 0 0.56500000 0.56500000 0.56500000
C 41.86925198 21.66334674 13.51687675 6474 306 0 0.56500000 0.56500000 0.56500000
C 40.62192330 20.99024478 12.83706075 6475 306 0 0.56500000 0.56500000 0.56500000
H 39.02173017 25.74105170 11.70149421 6476 306 0 1.00000000 1.00000000 1.00000000
H 38.70961160 27.06441985 12.83067859 6477 306 0 1.00000000 1.00000000 1.00000000
H 38.75851454 25.34576693 13.46521113 6478 306 0 1.00000000 1.00000000 1.00000000
H 40.88151853 26.58479369 13.98890736 6479 306 0 1.00000000 1.00000000 1.00000000
H 41.23909470 26.59588366 12.24789061 6480 306 0 1.00000000 1.00000000 1.00000000
H 42.36116399 24.87067075 13.30677339 6481 306 0 1.00000000 1.00000000 1.00000000
H 41.17818133 24.17460418 12.24005838 6482 306 0 1.00000000 1.00000000 1.00000000
H 39.65373119 23.52239690 14.00420499 6483 306 0 1.00000000 1.00000000 1.00000000
H 40.58425531 24.49915216 15.15789710 6484 306 0 1.00000000 1.00000000 1.00000000
H 40.72659844 22.08006745 15.27607092 6485 306 0 1.00000000 1.00000000 1.00000000
H 42.14423930 22.88720556 15.37601194 6486 306 0 1.00000000 1.00000000 1.00000000
H 42.37936803 20.81806115 13.99591698 6487 306 0 1.00000000 1.00000000 1.00000000
H 42.53240483 22.18930613 12.83874867 6488 306 0 1.00000000 1.00000000 1.00000000
H 39.90374483 21.70748554 12.40468815 6489 306 0 1.00000000 1.00000000 1.00000000
H 40.04764444 20.32469336 13.50136391 6490 306 0 1.00000000 1.00000000 1.00000000
H 40.95648867 20.26664482 12.02470764 6491 306 0 1.00000000 1.00000000 1.00000000
C 25.19863968 10.34610420 11.82365602 6492 307 0 0.56500000 0.56500000 0.56500000
C 26.55137015 10.21199737 12.48152843 6493 307 0 0.56500000 0.56500000 0.56500000
C 26.69943583 10.66771605 13.91125057 6494 307 0 0.56500000 0.56500000 0.56500000
C 25.58443687 10.07213290 14.87243448 6495 307 0 0.56500000 0.56500000 0.56500000
C 26.02438934 10.33891074 16.25833343 6496 307 0 0.56500000 0.56500000 0.56500000
C 25.27777605 9.73060109 17.49795017 6497 307 0 0.56500000 0.56500000 0.56500000
C 23.76031981 9.73322952 17.32480766 6498 307 0 0.56500000 0.56500000 0.56500000
H 24.37332861 10.14069514 12.54284944 6499 307 0 1.00000000 1.00000000 1.00000000
H 25.05733756 9.59036645 11.07035720 6500 307 0 1.00000000 1.00000000 1.00000000
H 25.15544512 11.35546887 11.37980305 6501 307 0 1.00000000 1.00000000 1.00000000
H 27.35670793 10.58351941 11.82054959 6502 307 0 1.00000000 1.00000000 1.00000000
H 26.71831703 9.15093676 12.68749011 6503 307 0 1.00000000 1.00000000 1.00000000
H 26.79082474 11.73436533 14.02574714 6504 307 0 1.00000000 1.00000000 1.00000000
H 27.59320461 10.17864609 14.16788836 6505 307 0 1.00000000 1.00000000 1.00000000
H 25.47671590 8.97727333 14.64459617 6506 307 0 1.00000000 1.00000000 1.00000000
H 24.61156342 10.54908108 14.64640712 6507 307 0 1.00000000 1.00000000 1.00000000
H 26.12661075 11.42606033 16.33841357 6508 307 0 1.00000000 1.00000000 1.00000000
H 27.07497146 10.01456202 16.36506477 6509 307 0 1.00000000 1.00000000 1.00000000
H 25.57400020 10.29768399 18.32663113 6510 307 0 1.00000000 1.00000000 1.00000000
H 25.54489458 8.70915432 17.78149942 6511 307 0 1.00000000 1.00000000 1.00000000
H 23.29475451 9.41568540 18.28532927 6512 307 0 1.00000000 1.00000000 1.00000000
H 23.59848162 8.91226530 16.52693528 6513 307 0 1.00000000 1.00000000 1.00000000
H 23.35105821 10.73713798 17.10782582 6514 307 0 1.00000000 1.00000000 1.00000000
C 18.26366072 28.28269416 -0.30127202 6515 308 0 0.56500000 0.56500000 0.56500000
C 18.50847957 27.57267309 -1.72394851 6516 308 0 0.56500000 0.56500000 0.56500000
C 18.28159935 28.61543973 -2.85635687 6517 308 0 0.56500000 0.56500000 0.56500000
C 19.41691192 29.59877875 -2.95848099 6518 308 0 0.56500000 0.56500000 0.56500000
C 19.27666328 30.61296248 -4.11118096 6519 308 0 0.56500000 0.56500000 0.56500000
C 19.54714927 30.01096516 -5.50847828 6520 308 0 0.56500000 0.56500000 0.56500000
C 19.21093022 31.04082495 -6.66082459 6521 308 0 0.56500000 0.56500000 0.56500000
H 17.19733180 28.58902344 -0.19011293 6522 308 0 1.00000000 1.00000000 1.00000000
H 18.83418813 29.15475272 -0.19762664 6523 308 0 1.00000000 1.00000000 1.00000000
H 18.45517306 27.60179163 0.49752213 6524 308 0 1.00000000 1.00000000 1.00000000
H 17.73701660 26.76541621 -1.81492188 6525 308 0 1.00000000 1.00000000 1.00000000
H 19.50805742 27.11113567 -1.79129834 6526 308 0 1.00000000 1.00000000 1.00000000
H 17.29191495 29.10470750 -2.78317126 6527 308 0 1.00000000 1.00000000 1.00000000
H 18.32435340 28.06549814 -3.82916100 6528 308 0 1.00000000 1.00000000 1.00000000
H 20.28654771 29.04826342 -3.11227208 6529 308 0 1.00000000 1.00000000 1.00000000
H 19.58871716 30.15556495 -2.03845360 6530 308 0 1.00000000 1.00000000 1.00000000
H 20.01626099 31.47461388 -4.00494111 6531 308 0 1.00000000 1.00000000 1.00000000
H 18.29904626 31.13206433 -4.07730941 6532 308 0 1.00000000 1.00000000 1.00000000
H 18.87570077 29.09061165 -5.63250079 6533 308 0 1.00000000 1.00000000 1.00000000
H 20.57818888 29.65153778 -5.54996283 6534 308 0 1.00000000 1.00000000 1.00000000
H 19.92461912 31.88362473 -6.58520857 6535 308 0 1.00000000 1.00000000 1.00000000
H 18.22993687 31.40324944 -6.50387511 6536 308 0 1.00000000 1.00000000 1.00000000
H 19.23171603 30.58351701 -7.63095778 6537 308 0 1.00000000 1.00000000 1.00000000
C 29.15279404 25.06994615 17.63743867 6538 309 0 0.56500000 0.56500000 0.56500000
C 28.82271784 26.49113456 17.28797483 6539 309 0 0.56500000 0.56500000 0.56500000
C 30.04592975 27.40517746 16.97540559 6540 309 0 0.56500000 0.56500000 0.56500000
C 30.87573703 27.73012789 18.21922875 6541 309 0 0.56500000 0.56500000 0.56500000
C 32.24179750 28.25717578 17.85306460 6542 309 0 0.56500000 0.56500000 0.56500000
C 33.15468851 28.59376306 19.04664282 6543 309 0 0.56500000 0.56500000 0.56500000
C 34.43945970 29.32121316 18.67171478 6544 309 0 0.56500000 0.56500000 0.56500000
H 29.89379544 24.53293501 17.01759163 6545 309 0 1.00000000 1.00000000 1.00000000
H 28.32040775 24.38130518 17.85699204 6546 309 0 1.00000000 1.00000000 1.00000000
H 29.73756525 25.02636421 18.56382921 6547 309 0 1.00000000 1.00000000 1.00000000
H 28.33030705 26.92852871 18.16411534 6548 309 0 1.00000000 1.00000000 1.00000000
H 28.12385223 26.59371483 16.41059334 6549 309 0 1.00000000 1.00000000 1.00000000
H 29.61862431 28.35714530 16.51861653 6550 309 0 1.00000000 1.00000000 1.00000000
H 30.67194885 26.89854326 16.17036200 6551 309 0 1.00000000 1.00000000 1.00000000
H 30.97248597 26.78140246 18.78469066 6552 309 0 1.00000000 1.00000000 1.00000000
H 30.35178665 28.38905892 18.92417126 6553 309 0 1.00000000 1.00000000 1.00000000
H 32.01466055 29.23872975 17.36011709 6554 309 0 1.00000000 1.00000000 1.00000000
H 32.79054847 27.60673022 17.15630918 6555 309 0 1.00000000 1.00000000 1.00000000
H 33.45000731 27.62658859 19.46017073 6556 309 0 1.00000000 1.00000000 1.00000000
H 32.58799903 29.11964387 19.78056321 6557 309 0 1.00000000 1.00000000 1.00000000
H 34.95095579 29.47954895 19.64567076 6558 309 0 1.00000000 1.00000000 1.00000000
H 34.38164180 30.31253865 18.23989614 6559 309 0 1.00000000 1.00000000 1.00000000
H 34.99594033 28.73570061 17.96295918 6560 309 0 1.00000000 1.00000000 1.00000000
C 33.42592460 28.15798713 41.27672293 6561 310 0 0.56500000 0.56500000 0.56500000
C 34.05847139 28.60053186 39.93633765 6562 310 0 0.56500000 0.56500000 0.56500000
C 33.93416670 27.47973735 38.84812259 6563 310 0 0.56500000 0.56500000 0.56500000
C 34.20319783 27.99622072 37.44184117 6564 310 0 0.56500000 0.56500000 0.56500000
C 35.66247533 28.53546434 37.14648961 6565 310 0 0.56500000 0.56500000 0.56500000
C 36.72284168 27.71341795 37.79296931 6566 310 0 0.56500000 0.56500000 0.56500000
C 38.17784739 28.21248856 37.56123216 6567 310 0 0.56500000 0.56500000 0.56500000
H 34.06106575 27.41919404 41.82625858 6568 310 0 1.00000000 1.00000000 1.00000000
H 32.44682083 27.68142975 41.14957369 6569 310 0 1.00000000 1.00000000 1.00000000
H 33.23247954 28.97958231 41.89795277 6570 310 0 1.00000000 1.00000000 1.00000000
H 35.08736114 28.92356790 40.05245700 6571 310 0 1.00000000 1.00000000 1.00000000
H 33.41900571 29.49452530 39.53283570 6572 310 0 1.00000000 1.00000000 1.00000000
H 32.91699061 27.17070189 38.89209961 6573 310 0 1.00000000 1.00000000 1.00000000
H 34.59810466 26.68437160 39.16981303 6574 310 0 1.00000000 1.00000000 1.00000000
H 33.50798999 28.83176193 37.15714960 6575 310 0 1.00000000 1.00000000 1.00000000
H 33.92110326 27.23999136 36.64788338 6576 310 0 1.00000000 1.00000000 1.00000000
H 35.69207550 29.56429616 37.52859349 6577 310 0 1.00000000 1.00000000 1.00000000
H 35.86146108 28.70899099 36.05773782 6578 310 0 1.00000000 1.00000000 1.00000000
H 36.65392815 26.64410538 37.37731434 6579 310 0 1.00000000 1.00000000 1.00000000
H 36.66355184 27.59759518 38.92634995 6580 310 0 1.00000000 1.00000000 1.00000000
H 38.25842957 29.24837527 37.86129732 6581 310 0 1.00000000 1.00000000 1.00000000
H 38.40774750 28.11967820 36.53013097 6582 310 0 1.00000000 1.00000000 1.00000000
H 38.90014680 27.63602111 38.15086486 6583 310 0 1.00000000 1.00000000 1.00000000
C 2.95735696 17.73840696 -1.29101084 6584 311 0 0.56500000 0.56500000 0.56500000
C 4.43031599 17.99878796 -1.44567443 6585 311 0 0.56500000 0.56500000 0.56500000
C 5.14850594 17.91200033 -0.10400795 6586 311 0 0.56500000 0.56500000 0.56500000
C 5.35714531 16.48333609 0.28846193 6587 311 0 0.56500000 0.56500000 0.56500000
C 6.00307966 16.27269845 1.62368435 6588 311 0 0.56500000 0.56500000 0.56500000
C 6.81270268 14.99857580 1.98851196 6589 311 0 0.56500000 0.56500000 0.56500000
C 6.22695183 13.66754376 1.58974081 6590 311 0 0.56500000 0.56500000 0.56500000
H 2.43460775 17.91068462 -2.27183450 6591 311 0 1.00000000 1.00000000 1.00000000
H 2.49516715 18.39076856 -0.48676002 6592 311 0 1.00000000 1.00000000 1.00000000
H 2.64827373 16.74797983 -0.96379145 6593 311 0 1.00000000 1.00000000 1.00000000
H 4.41520078 19.04442169 -1.73776525 6594 311 0 1.00000000 1.00000000 1.00000000
H 4.87250869 17.45694060 -2.22971724 6595 311 0 1.00000000 1.00000000 1.00000000
H 4.57929389 18.41838070 0.67691702 6596 311 0 1.00000000 1.00000000 1.00000000
H 6.16118291 18.39091000 -0.09957759 6597 311 0 1.00000000 1.00000000 1.00000000
H 6.08647376 16.11070321 -0.47274174 6598 311 0 1.00000000 1.00000000 1.00000000
H 4.46730834 15.80158455 0.21915525 6599 311 0 1.00000000 1.00000000 1.00000000
H 5.17630024 16.21075775 2.38557679 6600 311 0 1.00000000 1.00000000 1.00000000
H 6.48553814 17.18092642 1.94316829 6601 311 0 1.00000000 1.00000000 1.00000000
H 6.99171851 14.98455381 3.01660092 6602 311 0 1.00000000 1.00000000 1.00000000
H 7.88751143 15.09602950 1.63607410 6603 311 0 1.00000000 1.00000000 1.00000000
H 5.34454609 13.53561637 2.20899275 6604 311 0 1.00000000 1.00000000 1.00000000
H 6.92779538 12.85402028 1.68080404 6605 311 0 1.00000000 1.00000000 1.00000000
H 5.93592771 13.65621207 0.54335890 6606 311 0 1.00000000 1.00000000 1.00000000
C 27.66226530 12.50800448 19.69534507 6607 312 0 0.56500000 0.56500000 0.56500000
C 27.43544114 13.82629831 18.97119114 6608 312 0 0.56500000 0.56500000 0.56500000
C 28.22039793 13.86806314 17.66283938 6609 312 0 0.56500000 0.56500000 0.56500000
C 27.95474534 15.03398575 16.72815144 6610 312 0 0.56500000 0.56500000 0.56500000
C 26.58184493 15.05832983 16.13871580 6611 312 0 0.56500000 0.56500000 0.56500000
C 26.45303766 16.22121223 15.07348028 6612 312 0 0.56500000 0.56500000 0.56500000
C 25.08117286 16.27783109 14.42712657 6613 312 0 0.56500000 0.56500000 0.56500000
H 28.75112235 12.34811110 19.83672723 6614 312 0 1.00000000 1.00000000 1.00000000
H 27.27443924 11.62995030 19.08966777 6615 312 0 1.00000000 1.00000000 1.00000000
H 27.22448578 12.48831071 20.67916515 6616 312 0 1.00000000 1.00000000 1.00000000
H 27.88536269 14.60783284 19.60042546 6617 312 0 1.00000000 1.00000000 1.00000000
H 26.32729961 13.93477140 18.86067505 6618 312 0 1.00000000 1.00000000 1.00000000
H 27.97369319 12.88716219 17.12587812 6619 312 0 1.00000000 1.00000000 1.00000000
H 29.26765635 13.96893344 17.87081534 6620 312 0 1.00000000 1.00000000 1.00000000
H 28.72580401 14.91719486 15.92433771 6621 312 0 1.00000000 1.00000000 1.00000000
H 28.23285132 16.07680676 17.21988355 6622 312 0 1.00000000 1.00000000 1.00000000
H 25.74457046 15.15089081 16.86473023 6623 312 0 1.00000000 1.00000000 1.00000000
H 26.22561451 14.15798242 15.53709576 6624 312 0 1.00000000 1.00000000 1.00000000
H 27.32613232 16.10480324 14.40943443 6625 312 0 1.00000000 1.00000000 1.00000000
H 26.67838591 17.21574789 15.46598082 6626 312 0 1.00000000 1.00000000 1.00000000
H 25.07206476 17.09787700 13.66187928 6627 312 0 1.00000000 1.00000000 1.00000000
H 24.24922078 16.53244213 15.07829791 6628 312 0 1.00000000 1.00000000 1.00000000
H 24.72200762 15.35503668 13.96819563 6629 312 0 1.00000000 1.00000000 1.00000000
C 24.22932210 28.05642786 6.67402906 6630 313 0 0.56500000 0.56500000 0.56500000
C 24.56104179 29.17826244 5.70442074 6631 313 0 0.56500000 0.56500000 0.56500000
C 23.46867882 29.45742080 4.72969478 6632 313 0 0.56500000 0.56500000 0.56500000
C 23.50595390 30.90690481 4.07884714 6633 313 0 0.56500000 0.56500000 0.56500000
C 23.21695498 32.02840529 5.07758455 6634 313 0 0.56500000 0.56500000 0.56500000
C 22.96628554 33.34268339 4.33388640 6635 313 0 0.56500000 0.56500000 0.56500000
C 22.69958324 34.52479032 5.25513877 6636 313 0 0.56500000 0.56500000 0.56500000
H 23.21428255 28.11200291 7.12486165 6637 313 0 1.00000000 1.00000000 1.00000000
H 24.95064090 27.79774670 7.50007169 6638 313 0 1.00000000 1.00000000 1.00000000
H 24.23131307 27.14109696 6.11656967 6639 313 0 1.00000000 1.00000000 1.00000000
H 25.47883100 28.93724272 5.09346361 6640 313 0 1.00000000 1.00000000 1.00000000
H 25.00651312 30.01402821 6.28769339 6641 313 0 1.00000000 1.00000000 1.00000000
H 22.51394032 29.34138466 5.19239992 6642 313 0 1.00000000 1.00000000 1.00000000
H 23.51431083 28.73743114 3.95472044 6643 313 0 1.00000000 1.00000000 1.00000000
H 22.74861034 30.90703107 3.31890995 6644 313 0 1.00000000 1.00000000 1.00000000
H 24.48064684 31.14837994 3.59023675 6645 313 0 1.00000000 1.00000000 1.00000000
H 23.96478359 32.36076157 5.85298463 6646 313 0 1.00000000 1.00000000 1.00000000
H 22.34194888 31.75500165 5.68575574 6647 313 0 1.00000000 1.00000000 1.00000000
H 22.12500545 33.18876520 3.73076722 6648 313 0 1.00000000 1.00000000 1.00000000
H 23.77407804 33.45381054 3.55312003 6649 313 0 1.00000000 1.00000000 1.00000000
H 23.43319148 34.66710128 6.01489767 6650 313 0 1.00000000 1.00000000 1.00000000
H 21.75569740 34.54272469 5.87081123 6651 313 0 1.00000000 1.00000000 1.00000000
H 22.69334767 35.54126087 4.88399688 6652 313 0 1.00000000 1.00000000 1.00000000
C 49.93713439 24.00738253 18.29746252 6653 314 0 0.56500000 0.56500000 0.56500000
C 48.51733996 23.76463691 17.80691777 6654 314 0 0.56500000 0.56500000 0.56500000
C 48.32671315 24.14264693 16.35086972 6655 314 0 0.56500000 0.56500000 0.56500000
C 46.91784906 23.73460021 15.81240442 6656 314 0 0.56500000 0.56500000 0.56500000
C 45.69137001 24.37184468 16.37155799 6657 314 0 0.56500000 0.56500000 0.56500000
C 45.27796421 25.68593501 15.69511718 6658 314 0 0.56500000 0.56500000 0.56500000
C 43.97842179 26.22989666 16.18104562 6659 314 0 0.56500000 0.56500000 0.56500000
H 50.60418284 23.72355515 17.45941615 6660 314 0 1.00000000 1.00000000 1.00000000
H 50.06809284 23.53622267 19.26821890 6661 314 0 1.00000000 1.00000000 1.00000000
H 50.11431126 25.08661812 18.39031028 6662 314 0 1.00000000 1.00000000 1.00000000
H 47.81055372 24.27479418 18.48366272 6663 314 0 1.00000000 1.00000000 1.00000000
H 48.25154329 22.72569276 17.91591690 6664 314 0 1.00000000 1.00000000 1.00000000
H 49.22221533 23.81402367 15.75615680 6665 314 0 1.00000000 1.00000000 1.00000000
H 48.41378313 25.24368007 16.38607318 6666 314 0 1.00000000 1.00000000 1.00000000
H 46.79633424 22.65768300 15.92729069 6667 314 0 1.00000000 1.00000000 1.00000000
H 46.91443555 23.89712593 14.74297683 6668 314 0 1.00000000 1.00000000 1.00000000
H 45.68545861 24.36101421 17.43537127 6669 314 0 1.00000000 1.00000000 1.00000000
H 44.75372188 23.78083808 16.03050401 6670 314 0 1.00000000 1.00000000 1.00000000
H 45.17572564 25.47293063 14.58321708 6671 314 0 1.00000000 1.00000000 1.00000000
H 46.14042289 26.32922978 15.71761723 6672 314 0 1.00000000 1.00000000 1.00000000
H 44.07617072 26.77758088 17.13843236 6673 314 0 1.00000000 1.00000000 1.00000000
H 43.14239708 25.52241370 16.24919647 6674 314 0 1.00000000 1.00000000 1.00000000
H 43.60499279 27.03381286 15.45588174 6675 314 0 1.00000000 1.00000000 1.00000000
C -0.18926499 19.63816865 1.65514394 6676 315 0 0.56500000 0.56500000 0.56500000
C 0.10575900 21.15739259 1.45625552 6677 315 0 0.56500000 0.56500000 0.56500000
C 1.47129583 21.35855650 0.83067962 6678 315 0 0.56500000 0.56500000 0.56500000
C 2.63343124 20.97743266 1.71201641 6679 315 0 0.56500000 0.56500000 0.56500000
C 2.82945114 21.86034471 3.02404632 6680 315 0 0.56500000 0.56500000 0.56500000
C 4.26700724 21.62233038 3.63870609 6681 315 0 0.56500000 0.56500000 0.56500000
C 4.61463617 22.49590967 4.82290510 6682 315 0 0.56500000 0.56500000 0.56500000
H -0.14693515 19.15285256 0.63704798 6683 315 0 1.00000000 1.00000000 1.00000000
H -1.22458774 19.58939503 1.88938055 6684 315 0 1.00000000 1.00000000 1.00000000
H 0.33199207 19.10121501 2.43167217 6685 315 0 1.00000000 1.00000000 1.00000000
H 0.01505809 21.78150931 2.30869384 6686 315 0 1.00000000 1.00000000 1.00000000
H -0.67444586 21.54568316 0.74357730 6687 315 0 1.00000000 1.00000000 1.00000000
H 1.67788143 22.36085116 0.57626883 6688 315 0 1.00000000 1.00000000 1.00000000
H 1.51070090 20.81122814 -0.16634111 6689 315 0 1.00000000 1.00000000 1.00000000
H 3.54785678 21.04232054 1.13172280 6690 315 0 1.00000000 1.00000000 1.00000000
H 2.56399471 19.92490193 2.01088379 6691 315 0 1.00000000 1.00000000 1.00000000
H 2.15952220 21.49320663 3.84148618 6692 315 0 1.00000000 1.00000000 1.00000000
H 2.60741355 22.91587304 2.80319244 6693 315 0 1.00000000 1.00000000 1.00000000
H 4.92982749 21.79120989 2.78236790 6694 315 0 1.00000000 1.00000000 1.00000000
H 4.35084853 20.58034974 3.94052494 6695 315 0 1.00000000 1.00000000 1.00000000
H 3.88766378 22.30361683 5.58198278 6696 315 0 1.00000000 1.00000000 1.00000000
H 4.63941989 23.53988219 4.63119132 6697 315 0 1.00000000 1.00000000 1.00000000
H 5.63832340 22.29644023 5.20390973 6698 315 0 1.00000000 1.00000000 1.00000000
C 37.42790692 9.44782259 -5.10893891 6699 316 0 0.56500000 0.56500000 0.56500000
C 37.40317703 8.04327843 -4.39755561 6700 316 0 0.56500000 0.56500000 0.56500000
C 38.23874285 8.10589046 -3.06951799 6701 316 0 0.56500000 0.56500000 0.56500000
C 38.44129653 6.79690034 -2.39075522 6702 316 0 0.56500000 0.56500000 0.56500000
C 37.07624906 6.14602197 -2.08162113 6703 316 0 0.56500000 0.56500000 0.56500000
C 37.18005690 5.10995560 -0.93274711 6704 316 0 0.56500000 0.56500000 0.56500000
C 35.88737321 4.51793817 -0.41992068 6705 316 0 0.56500000 0.56500000 0.56500000
H 37.01573137 9.49317450 -6.11876023 6706 316 0 1.00000000 1.00000000 1.00000000
H 38.51470654 9.63639750 -5.31105651 6707 316 0 1.00000000 1.00000000 1.00000000
H 36.95963583 10.21228697 -4.52087267 6708 316 0 1.00000000 1.00000000 1.00000000
H 37.81220703 7.18355779 -5.00247328 6709 316 0 1.00000000 1.00000000 1.00000000
H 36.40631880 7.71339835 -4.09977964 6710 316 0 1.00000000 1.00000000 1.00000000
H 37.70979757 8.79740154 -2.33410277 6711 316 0 1.00000000 1.00000000 1.00000000
H 39.26510561 8.61768553 -3.27543634 6712 316 0 1.00000000 1.00000000 1.00000000
H 38.97566895 6.71087269 -1.43224649 6713 316 0 1.00000000 1.00000000 1.00000000
H 39.00072156 6.10556811 -2.98877485 6714 316 0 1.00000000 1.00000000 1.00000000
H 36.63889195 5.44711116 -2.89646472 6715 316 0 1.00000000 1.00000000 1.00000000
H 36.35222743 6.95446590 -1.72418401 6716 316 0 1.00000000 1.00000000 1.00000000
H 37.53553425 5.61209074 -0.05479299 6717 316 0 1.00000000 1.00000000 1.00000000
H 37.92105944 4.32262597 -1.13981600 6718 316 0 1.00000000 1.00000000 1.00000000
H 36.07874407 3.98460042 0.50859462 6719 316 0 1.00000000 1.00000000 1.00000000
H 35.33968682 3.81399695 -1.19026155 6720 316 0 1.00000000 1.00000000 1.00000000
H 35.02900679 5.22913507 -0.21406429 6721 316 0 1.00000000 1.00000000 1.00000000
C -3.24951417 43.89841026 5.98704761 6722 317 0 0.56500000 0.56500000 0.56500000
C -2.90870083 42.98800571 7.11513330 6723 317 0 0.56500000 0.56500000 0.56500000
C -2.25457890 41.68859156 6.63778252 6724 317 0 0.56500000 0.56500000 0.56500000
C -2.17624345 40.61598679 7.68804670 6725 317 0 0.56500000 0.56500000 0.56500000
C -2.29591246 39.18127038 7.20329981 6726 317 0 0.56500000 0.56500000 0.56500000
C -1.90869934 38.11417575 8.27088046 6727 317 0 0.56500000 0.56500000 0.56500000
C -2.56877869 38.25772654 9.59128407 6728 317 0 0.56500000 0.56500000 0.56500000
H -2.31087598 44.27283600 5.51598812 6729 317 0 1.00000000 1.00000000 1.00000000
H -3.91325130 44.71687088 6.16153369 6730 317 0 1.00000000 1.00000000 1.00000000
H -3.77628450 43.39030567 5.17471402 6731 317 0 1.00000000 1.00000000 1.00000000
H -3.76107650 42.72722970 7.72221713 6732 317 0 1.00000000 1.00000000 1.00000000
H -2.13958540 43.52557041 7.70952276 6733 317 0 1.00000000 1.00000000 1.00000000
H -1.28938939 41.76341674 6.18543656 6734 317 0 1.00000000 1.00000000 1.00000000
H -2.78314488 41.17874849 5.77979934 6735 317 0 1.00000000 1.00000000 1.00000000
H -2.82065105 40.78162230 8.56145078 6736 317 0 1.00000000 1.00000000 1.00000000
H -1.13404921 40.62031038 8.19589512 6737 317 0 1.00000000 1.00000000 1.00000000
H -1.63009447 39.06959083 6.32124886 6738 317 0 1.00000000 1.00000000 1.00000000
H -3.24924354 38.85805092 6.79060564 6739 317 0 1.00000000 1.00000000 1.00000000
H -0.87901913 38.18024766 8.37825250 6740 317 0 1.00000000 1.00000000 1.00000000
H -2.09050171 37.17314665 7.73842674 6741 317 0 1.00000000 1.00000000 1.00000000
H -2.55295359 37.32252912 10.10676679 6742 317 0 1.00000000 1.00000000 1.00000000
H -3.63615370 38.55982140 9.46062674 6743 317 0 1.00000000 1.00000000 1.00000000
H -2.01045944 38.93260517 10.27593989 6744 317 0 1.00000000 1.00000000 1.00000000
C 18.83738705 19.19847759 20.85496230 6745 318 0 0.56500000 0.56500000 0.56500000
C 20.24198058 19.49679177 21.38349041 6746 318 0 0.56500000 0.56500000 0.56500000
C 20.54197022 18.74457936 22.71032671 6747 318 0 0.56500000 0.56500000 0.56500000
C 21.39106019 19.57554498 23.60157043 6748 318 0 0.56500000 0.56500000 0.56500000
C 21.64034018 18.84500148 24.95900711 6749 318 0 0.56500000 0.56500000 0.56500000
C 22.51531746 19.54227351 25.98916875 6750 318 0 0.56500000 0.56500000 0.56500000
C 22.00048510 20.97382403 26.26997426 6751 318 0 0.56500000 0.56500000 0.56500000
H 18.10925024 19.42247255 21.64945414 6752 318 0 1.00000000 1.00000000 1.00000000
H 18.74124137 18.14861031 20.60186647 6753 318 0 1.00000000 1.00000000 1.00000000
H 18.61434245 19.84479587 19.97265398 6754 318 0 1.00000000 1.00000000 1.00000000
H 20.41428226 20.57785569 21.49761501 6755 318 0 1.00000000 1.00000000 1.00000000
H 21.03416922 19.17572911 20.73097656 6756 318 0 1.00000000 1.00000000 1.00000000
H 20.98096124 17.74992463 22.48587241 6757 318 0 1.00000000 1.00000000 1.00000000
H 19.55136093 18.51050506 23.12882933 6758 318 0 1.00000000 1.00000000 1.00000000
H 20.91722047 20.53237639 23.76772668 6759 318 0 1.00000000 1.00000000 1.00000000
H 22.37125212 19.73916687 23.19023336 6760 318 0 1.00000000 1.00000000 1.00000000
H 22.04767300 17.90518468 24.70021143 6761 318 0 1.00000000 1.00000000 1.00000000
H 20.64883175 18.63209348 25.33700939 6762 318 0 1.00000000 1.00000000 1.00000000
H 23.64112209 19.66309802 25.68162085 6763 318 0 1.00000000 1.00000000 1.00000000
H 22.58512549 18.93966502 26.87776492 6764 318 0 1.00000000 1.00000000 1.00000000
H 21.45306033 21.36371273 25.43204029 6765 318 0 1.00000000 1.00000000 1.00000000
H 22.78805622 21.69900280 26.54104111 6766 318 0 1.00000000 1.00000000 1.00000000
H 21.29859001 21.00821637 27.11473721 6767 318 0 1.00000000 1.00000000 1.00000000
C 40.95653383 33.94524289 18.88328403 6768 319 0 0.56500000 0.56500000 0.56500000
C 40.29493015 34.93422751 17.96825257 6769 319 0 0.56500000 0.56500000 0.56500000
C 39.72267172 36.22864972 18.70631167 6770 319 0 0.56500000 0.56500000 0.56500000
C 38.67946429 36.90661763 17.77250805 6771 319 0 0.56500000 0.56500000 0.56500000
C 37.79041273 37.82921405 18.52850728 6772 319 0 0.56500000 0.56500000 0.56500000
C 38.44459053 39.22607088 18.87118257 6773 319 0 0.56500000 0.56500000 0.56500000
C 37.43777800 40.06116514 19.64804725 6774 319 0 0.56500000 0.56500000 0.56500000
H 41.94753397 34.15228030 19.11789357 6775 319 0 1.00000000 1.00000000 1.00000000
H 40.89929103 32.93469630 18.45791183 6776 319 0 1.00000000 1.00000000 1.00000000
H 40.37336524 33.92189635 19.81511246 6777 319 0 1.00000000 1.00000000 1.00000000
H 39.38003818 34.48750362 17.51644890 6778 319 0 1.00000000 1.00000000 1.00000000
H 40.99731264 35.09641111 17.18177425 6779 319 0 1.00000000 1.00000000 1.00000000
H 40.60604233 36.82316952 18.85973306 6780 319 0 1.00000000 1.00000000 1.00000000
H 39.34822946 35.84046086 19.69325658 6781 319 0 1.00000000 1.00000000 1.00000000
H 38.10494679 36.07840216 17.32092661 6782 319 0 1.00000000 1.00000000 1.00000000
H 39.26524881 37.42015565 16.98191319 6783 319 0 1.00000000 1.00000000 1.00000000
H 37.46084847 37.26875528 19.41174243 6784 319 0 1.00000000 1.00000000 1.00000000
H 36.88769684 38.23908816 17.96845327 6785 319 0 1.00000000 1.00000000 1.00000000
H 38.86550674 39.64281806 17.92678600 6786 319 0 1.00000000 1.00000000 1.00000000
H 39.34646384 39.01767204 19.44275857 6787 319 0 1.00000000 1.00000000 1.00000000
H 36.54680924 40.30225436 19.12451345 6788 319 0 1.00000000 1.00000000 1.00000000
H 37.84297380 40.98764982 20.09318911 6789 319 0 1.00000000 1.00000000 1.00000000
H 37.05726304 39.51851795 20.54096989 6790 319 0 1.00000000 1.00000000 1.00000000
C 34.50513923 9.82857433 27.88522433 6791 320 0 0.56500000 0.56500000 0.56500000
C 33.32890352 10.24658556 27.07964163 6792 320 0 0.56500000 0.56500000 0.56500000
C 32.91738794 9.06099318 26.23082102 6793 320 0 0.56500000 0.56500000 0.56500000
C 31.57647278 9.29361658 25.55962709 6794 320 0 0.56500000 0.56500000 0.56500000
C 31.81046658 10.09990746 24.29092204 6795 320 0 0.56500000 0.56500000 0.56500000
C 30.50931126 10.44622364 23.60945915 6796 320 0 0.56500000 0.56500000 0.56500000
C 30.74367302 11.31822777 22.42361575 6797 320 0 0.56500000 0.56500000 0.56500000
H 35.51089726 9.71956572 27.34361063 6798 320 0 1.00000000 1.00000000 1.00000000
H 34.18600151 8.84110485 28.36607675 6799 320 0 1.00000000 1.00000000 1.00000000
H 34.73549449 10.56615673 28.65979394 6800 320 0 1.00000000 1.00000000 1.00000000
H 33.62935285 11.09491826 26.43185160 6801 320 0 1.00000000 1.00000000 1.00000000
H 32.50269802 10.50462216 27.74324033 6802 320 0 1.00000000 1.00000000 1.00000000
H 32.81089054 8.23992841 27.00873884 6803 320 0 1.00000000 1.00000000 1.00000000
H 33.74068382 8.74244730 25.56363746 6804 320 0 1.00000000 1.00000000 1.00000000
H 30.88670450 9.89285777 26.23843235 6805 320 0 1.00000000 1.00000000 1.00000000
H 31.14633341 8.34902860 25.28559425 6806 320 0 1.00000000 1.00000000 1.00000000
H 32.45730037 9.57446846 23.60264874 6807 320 0 1.00000000 1.00000000 1.00000000
H 32.38241112 11.03861026 24.43699804 6808 320 0 1.00000000 1.00000000 1.00000000
H 29.83288917 10.90656439 24.33985410 6809 320 0 1.00000000 1.00000000 1.00000000
H 30.09037681 9.45688427 23.30383497 6810 320 0 1.00000000 1.00000000 1.00000000
H 31.05842328 10.67893043 21.55642368 6811 320 0 1.00000000 1.00000000 1.00000000
H 31.47541240 12.09402913 22.60802121 6812 320 0 1.00000000 1.00000000 1.00000000
H 29.82767946 11.76472992 21.99340377 6813 320 0 1.00000000 1.00000000 1.00000000
C 34.39798787 29.00987767 28.17860879 6814 321 0 0.56500000 0.56500000 0.56500000
C 34.38563323 28.16868640 29.47601182 6815 321 0 0.56500000 0.56500000 0.56500000
C 33.24784528 28.52216174 30.44204841 6816 321 0 0.56500000 0.56500000 0.56500000
C 33.41733306 27.82741226 31.80270105 6817 321 0 0.56500000 0.56500000 0.56500000
C 32.24932734 28.06042647 32.65201830 6818 321 0 0.56500000 0.56500000 0.56500000
C 32.33662637 27.47865621 34.03821184 6819 321 0 0.56500000 0.56500000 0.56500000
C 31.02628204 27.59728461 34.79489973 6820 321 0 0.56500000 0.56500000 0.56500000
H 34.33482519 30.00252234 28.50160585 6821 321 0 1.00000000 1.00000000 1.00000000
H 33.60694320 28.74610933 27.47145071 6822 321 0 1.00000000 1.00000000 1.00000000
H 35.36581347 28.85675817 27.71797319 6823 321 0 1.00000000 1.00000000 1.00000000
H 35.35035464 28.29531562 29.93434301 6824 321 0 1.00000000 1.00000000 1.00000000
H 34.25473795 27.12203712 29.32716433 6825 321 0 1.00000000 1.00000000 1.00000000
H 32.29450598 28.17986457 30.02831045 6826 321 0 1.00000000 1.00000000 1.00000000
H 33.14974829 29.58580583 30.55574920 6827 321 0 1.00000000 1.00000000 1.00000000
H 34.38357448 28.14974899 32.30287224 6828 321 0 1.00000000 1.00000000 1.00000000
H 33.37381263 26.72147476 31.59645390 6829 321 0 1.00000000 1.00000000 1.00000000
H 31.27612542 27.83340850 32.17584403 6830 321 0 1.00000000 1.00000000 1.00000000
H 32.16432492 29.20817229 32.71802798 6831 321 0 1.00000000 1.00000000 1.00000000
H 33.18807018 28.00584317 34.53260641 6832 321 0 1.00000000 1.00000000 1.00000000
H 32.51936510 26.39320525 34.01265843 6833 321 0 1.00000000 1.00000000 1.00000000
H 31.12752548 27.16685254 35.76912474 6834 321 0 1.00000000 1.00000000 1.00000000
H 30.32748794 27.03778415 34.21568843 6835 321 0 1.00000000 1.00000000 1.00000000
H 30.60328634 28.62510980 34.95789610 6836 321 0 1.00000000 1.00000000 1.00000000
C 38.24106910 41.99256846 -9.58246257 6837 322 0 0.56500000 0.56500000 0.56500000
C 37.02478164 42.08103092 -8.67986218 6838 322 0 0.56500000 0.56500000 0.56500000
C 36.97573739 41.13735120 -7.42938196 6839 322 0 0.56500000 0.56500000 0.56500000
C 38.23955855 41.33755758 -6.53850750 6840 322 0 0.56500000 0.56500000 0.56500000
C 38.03677006 40.74085271 -5.11966036 6841 322 0 0.56500000 0.56500000 0.56500000
C 36.82299877 41.28861633 -4.47482756 6842 322 0 0.56500000 0.56500000 0.56500000
C 36.57697892 40.75614313 -3.04414246 6843 322 0 0.56500000 0.56500000 0.56500000
H 38.28771514 40.94444645 -10.01608124 6844 322 0 1.00000000 1.00000000 1.00000000
H 39.12780313 42.19680991 -9.02726445 6845 322 0 1.00000000 1.00000000 1.00000000
H 38.22088281 42.74176844 -10.34813967 6846 322 0 1.00000000 1.00000000 1.00000000
H 36.15130565 41.76716756 -9.20638188 6847 322 0 1.00000000 1.00000000 1.00000000
H 36.93256578 43.07162326 -8.36429678 6848 322 0 1.00000000 1.00000000 1.00000000
H 36.87156745 40.10162065 -7.66705190 6849 322 0 1.00000000 1.00000000 1.00000000
H 36.13796048 41.46689497 -6.85713792 6850 322 0 1.00000000 1.00000000 1.00000000
H 38.23425734 42.44455543 -6.41236874 6851 322 0 1.00000000 1.00000000 1.00000000
H 39.17934549 40.87033545 -6.98129916 6852 322 0 1.00000000 1.00000000 1.00000000
H 38.91348299 40.89285368 -4.39425562 6853 322 0 1.00000000 1.00000000 1.00000000
H 37.93109806 39.66357694 -5.17233930 6854 322 0 1.00000000 1.00000000 1.00000000
H 35.84428679 41.10368009 -5.02358757 6855 322 0 1.00000000 1.00000000 1.00000000
H 36.79074745 42.36235187 -4.44532303 6856 322 0 1.00000000 1.00000000 1.00000000
H 36.19678857 39.68680656 -3.01776797 6857 322 0 1.00000000 1.00000000 1.00000000
H 35.84841332 41.40075790 -2.51095518 6858 322 0 1.00000000 1.00000000 1.00000000
H 37.57014275 40.83401819 -2.51888204 6859 322 0 1.00000000 1.00000000 1.00000000
C 34.86170653 37.97562104 37.50720403 6860 323 0 0.56500000 0.56500000 0.56500000
C 33.85440812 37.89671638 38.65557504 6861 323 0 0.56500000 0.56500000 0.56500000
C 33.39043162 36.56826606 39.14718479 6862 323 0 0.56500000 0.56500000 0.56500000
C 32.72610601 36.53971890 40.52723167 6863 323 0 0.56500000 0.56500000 0.56500000
C 31.51241419 37.43010900 40.64610328 6864 323 0 0.56500000 0.56500000 0.56500000
C 30.63006370 37.16953517 41.88697164 6865 323 0 0.56500000 0.56500000 0.56500000
C 29.56889952 38.18575723 42.05410121 6866 323 0 0.56500000 0.56500000 0.56500000
H 34.52793785 37.40623069 36.63766715 6867 323 0 1.00000000 1.00000000 1.00000000
H 35.93014678 37.68157754 37.78074832 6868 323 0 1.00000000 1.00000000 1.00000000
H 34.90621589 38.97268208 37.07135498 6869 323 0 1.00000000 1.00000000 1.00000000
H 33.01556985 38.59420839 38.46808826 6870 323 0 1.00000000 1.00000000 1.00000000
H 34.30700157 38.47709535 39.53745654 6871 323 0 1.00000000 1.00000000 1.00000000
H 34.19643316 35.84477996 39.05367253 6872 323 0 1.00000000 1.00000000 1.00000000
H 32.69612920 36.16929665 38.39238386 6873 323 0 1.00000000 1.00000000 1.00000000
H 33.43989922 36.75527935 41.30191675 6874 323 0 1.00000000 1.00000000 1.00000000
H 32.43023491 35.52947581 40.72799958 6875 323 0 1.00000000 1.00000000 1.00000000
H 30.90762142 37.33125652 39.71129768 6876 323 0 1.00000000 1.00000000 1.00000000
H 31.76506082 38.47199443 40.67415883 6877 323 0 1.00000000 1.00000000 1.00000000
H 31.40859600 37.08307273 42.69988645 6878 323 0 1.00000000 1.00000000 1.00000000
H 30.12949567 36.10625594 41.74038676 6879 323 0 1.00000000 1.00000000 1.00000000
H 30.09682466 39.13803086 42.04428671 6880 323 0 1.00000000 1.00000000 1.00000000
H 29.04867126 38.15085051 43.03733534 6881 323 0 1.00000000 1.00000000 1.00000000
H 28.87374981 38.14159459 41.21915462 6882 323 0 1.00000000 1.00000000 1.00000000
C 9.16894783 11.77607578 12.90929226 6883 324 0 0.56500000 0.56500000 0.56500000
C 9.75048394 11.20033999 11.59093923 6884 324 0 0.56500000 0.56500000 0.56500000
C 9.16888091 9.81340254 11.22008481 6885 324 0 0.56500000 0.56500000 0.56500000
C 9.78367123 9.10284909 10.01832526 6886 324 0 0.56500000 0.56500000 0.56500000
C 9.12892212 7.72335202 9.89187832 6887 324 0 0.56500000 0.56500000 0.56500000
C 9.76873456 6.67713826 9.00539978 6888 324 0 0.56500000 0.56500000 0.56500000
C 9.10568012 5.29954294 9.25231293 6889 324 0 0.56500000 0.56500000 0.56500000
H 9.72236519 12.67359945 13.14513424 6890 324 0 1.00000000 1.00000000 1.00000000
H 9.32812537 11.13741504 13.76899034 6891 324 0 1.00000000 1.00000000 1.00000000
H 8.04902823 11.96226044 12.81516194 6892 324 0 1.00000000 1.00000000 1.00000000
H 10.83985763 11.15731112 11.67390553 6893 324 0 1.00000000 1.00000000 1.00000000
H 9.61427970 11.93868906 10.70606088 6894 324 0 1.00000000 1.00000000 1.00000000
H 8.01242722 9.84699226 11.13458946 6895 324 0 1.00000000 1.00000000 1.00000000
H 9.41414467 9.17304830 12.08885007 6896 324 0 1.00000000 1.00000000 1.00000000
H 10.92720397 8.94211577 10.20581897 6897 324 0 1.00000000 1.00000000 1.00000000
H 9.72502679 9.72929613 9.04675006 6898 324 0 1.00000000 1.00000000 1.00000000
H 8.06594106 7.87809664 9.70607717 6899 324 0 1.00000000 1.00000000 1.00000000
H 9.17321909 7.37934414 10.96560957 6900 324 0 1.00000000 1.00000000 1.00000000
H 10.88775118 6.58706698 9.04702556 6901 324 0 1.00000000 1.00000000 1.00000000
H 9.48775607 6.84100654 7.93993678 6902 324 0 1.00000000 1.00000000 1.00000000
H 9.42163321 4.84631841 10.19377840 6903 324 0 1.00000000 1.00000000 1.00000000
H 9.35885131 4.60018634 8.39490477 6904 324 0 1.00000000 1.00000000 1.00000000
H 7.97933223 5.39092213 9.25540844 6905 324 0 1.00000000 1.00000000 1.00000000
C 10.23675560 32.83562336 20.25241745 6906 325 0 0.56500000 0.56500000 0.56500000
C 11.50439737 33.59197733 20.67374698 6907 325 0 0.56500000 0.56500000 0.56500000
C 11.81369454 33.59476823 22.21687591 6908 325 0 0.56500000 0.56500000 0.56500000
C 10.79403666 34.47965834 23.00468561 6909 325 0 0.56500000 0.56500000 0.56500000
C 10.79998339 34.17347043 24.49200398 6910 325 0 0.56500000 0.56500000 0.56500000
C 9.87369878 35.05779501 25.33820335 6911 325 0 0.56500000 0.56500000 0.56500000
C 9.74294210 34.66348894 26.82079845 6912 325 0 0.56500000 0.56500000 0.56500000
H 10.28883046 32.62848078 19.20184815 6913 325 0 1.00000000 1.00000000 1.00000000
H 9.31730179 33.49666091 20.44120120 6914 325 0 1.00000000 1.00000000 1.00000000
H 10.11410700 31.82701873 20.76313356 6915 325 0 1.00000000 1.00000000 1.00000000
H 11.50519306 34.60990817 20.32996830 6916 325 0 1.00000000 1.00000000 1.00000000
H 12.39103900 33.16174520 20.26399954 6917 325 0 1.00000000 1.00000000 1.00000000
H 12.81251395 33.90192778 22.28783898 6918 325 0 1.00000000 1.00000000 1.00000000
H 11.74957619 32.58254443 22.59189898 6919 325 0 1.00000000 1.00000000 1.00000000
H 9.76808068 34.46944666 22.64334699 6920 325 0 1.00000000 1.00000000 1.00000000
H 11.14287845 35.55551967 22.85200221 6921 325 0 1.00000000 1.00000000 1.00000000
H 11.75669969 34.39478787 24.91596074 6922 325 0 1.00000000 1.00000000 1.00000000
H 10.67950274 33.13867827 24.83487418 6923 325 0 1.00000000 1.00000000 1.00000000
H 8.82166498 34.95805103 24.99885347 6924 325 0 1.00000000 1.00000000 1.00000000
H 10.29248778 36.06815345 25.32116834 6925 325 0 1.00000000 1.00000000 1.00000000
H 9.74994254 33.59246794 26.88097583 6926 325 0 1.00000000 1.00000000 1.00000000
H 8.89109674 35.06102479 27.30197402 6927 325 0 1.00000000 1.00000000 1.00000000
H 10.61132556 35.05950835 27.42659034 6928 325 0 1.00000000 1.00000000 1.00000000
C 22.44732433 51.63913821 9.54752197 6929 326 0 0.56500000 0.56500000 0.56500000
C 22.12032177 51.12591833 8.10695138 6930 326 0 0.56500000 0.56500000 0.56500000
C 23.28871103 50.36222683 7.46766666 6931 326 0 0.56500000 0.56500000 0.56500000
C 24.58073612 51.17493924 7.36418848 6932 326 0 0.56500000 0.56500000 0.56500000
C 25.76248691 50.38917342 6.66907003 6933 326 0 0.56500000 0.56500000 0.56500000
C 25.56171307 50.19996395 5.15399828 6934 326 0 0.56500000 0.56500000 0.56500000
C 26.36244761 48.90444294 4.77169285 6935 326 0 0.56500000 0.56500000 0.56500000
H 21.60281082 52.23714292 9.89225449 6936 326 0 1.00000000 1.00000000 1.00000000
H 23.23270168 52.41446714 9.41085376 6937 326 0 1.00000000 1.00000000 1.00000000
H 22.87527523 50.89881674 10.22793760 6938 326 0 1.00000000 1.00000000 1.00000000
H 22.02311011 52.06154916 7.50214332 6939 326 0 1.00000000 1.00000000 1.00000000
H 21.14327672 50.56111157 8.01882578 6940 326 0 1.00000000 1.00000000 1.00000000
H 22.99950969 49.96690181 6.52463034 6941 326 0 1.00000000 1.00000000 1.00000000
H 23.50064593 49.44972061 8.05802253 6942 326 0 1.00000000 1.00000000 1.00000000
H 24.83672366 51.74371148 8.32411836 6943 326 0 1.00000000 1.00000000 1.00000000
H 24.30420542 52.07462123 6.76564088 6944 326 0 1.00000000 1.00000000 1.00000000
H 25.73769680 49.35748984 7.05233945 6945 326 0 1.00000000 1.00000000 1.00000000
H 26.74261103 50.90030162 6.98217147 6946 326 0 1.00000000 1.00000000 1.00000000
H 25.88344644 51.06157452 4.64608849 6947 326 0 1.00000000 1.00000000 1.00000000
H 24.56625269 50.02078186 4.81768062 6948 326 0 1.00000000 1.00000000 1.00000000
H 27.36229377 48.82494539 5.32772936 6949 326 0 1.00000000 1.00000000 1.00000000
H 26.52674094 48.67937526 3.71226528 6950 326 0 1.00000000 1.00000000 1.00000000
H 25.77368385 48.05044429 5.23043339 6951 326 0 1.00000000 1.00000000 1.00000000
C 2.73635770 28.48654349 7.29491114 6952 327 0 0.56500000 0.56500000 0.56500000
C 1.94625187 29.73841014 7.30191610 6953 327 0 0.56500000 0.56500000 0.56500000
C 2.63205250 30.84881131 6.44019699 6954 327 0 0.56500000 0.56500000 0.56500000
C 2.15478639 32.27744418 6.72107374 6955 327 0 0.56500000 0.56500000 0.56500000
C 0.77536671 32.57251560 6.04850807 6956 327 0 0.56500000 0.56500000 0.56500000
C 0.56865181 34.11953349 5.83770472 6957 327 0 0.56500000 0.56500000 0.56500000
C 0.41887616 34.89722090 7.19290079 6958 327 0 0.56500000 0.56500000 0.56500000
H 3.61377614 28.47866028 7.90580903 6959 327 0 1.00000000 1.00000000 1.00000000
H 2.99122054 28.00104428 6.32654090 6960 327 0 1.00000000 1.00000000 1.00000000
H 2.21891197 27.76951831 7.91882672 6961 327 0 1.00000000 1.00000000 1.00000000
H 1.69319846 30.09180050 8.28782053 6962 327 0 1.00000000 1.00000000 1.00000000
H 0.99723320 29.59202561 6.84088138 6963 327 0 1.00000000 1.00000000 1.00000000
H 2.30550228 30.62723086 5.40417423 6964 327 0 1.00000000 1.00000000 1.00000000
H 3.69255652 30.77773327 6.51310904 6965 327 0 1.00000000 1.00000000 1.00000000
H 2.88976509 32.98253427 6.45750165 6966 327 0 1.00000000 1.00000000 1.00000000
H 1.91480353 32.36957960 7.85877941 6967 327 0 1.00000000 1.00000000 1.00000000
H -0.04412869 32.12770800 6.67850130 6968 327 0 1.00000000 1.00000000 1.00000000
H 0.77814467 32.00192079 5.08428278 6969 327 0 1.00000000 1.00000000 1.00000000
H -0.23032980 34.42453871 5.20669192 6970 327 0 1.00000000 1.00000000 1.00000000
H 1.47310825 34.49704581 5.36947327 6971 327 0 1.00000000 1.00000000 1.00000000
H 1.28364254 34.68889641 7.82062891 6972 327 0 1.00000000 1.00000000 1.00000000
H -0.38949826 34.53223781 7.76225809 6973 327 0 1.00000000 1.00000000 1.00000000
H 0.41906050 35.96962918 7.10424512 6974 327 0 1.00000000 1.00000000 1.00000000
C 8.27486987 4.42076420 14.02038058 6975 328 0 0.56500000 0.56500000 0.56500000
C 8.80643098 5.64614967 14.70523326 6976 328 0 0.56500000 0.56500000 0.56500000
C 9.89525925 5.30590526 15.70846430 6977 328 0 0.56500000 0.56500000 0.56500000
C 10.54317366 6.58332134 16.29474431 6978 328 0 0.56500000 0.56500000 0.56500000
C 9.76581861 7.19013146 17.48197170 6979 328 0 0.56500000 0.56500000 0.56500000
C 10.30847519 8.44850983 18.12094546 6980 328 0 0.56500000 0.56500000 0.56500000
C 11.71036940 8.21092762 18.84848624 6981 328 0 0.56500000 0.56500000 0.56500000
H 8.97400200 4.04175922 13.25025171 6982 328 0 1.00000000 1.00000000 1.00000000
H 7.31310796 4.60141921 13.49981488 6983 328 0 1.00000000 1.00000000 1.00000000
H 8.12062356 3.53755169 14.65193276 6984 328 0 1.00000000 1.00000000 1.00000000
H 8.02330500 5.96540135 15.37856918 6985 328 0 1.00000000 1.00000000 1.00000000
H 9.05090743 6.47042948 14.04021505 6986 328 0 1.00000000 1.00000000 1.00000000
H 10.61456021 4.66370215 15.27039051 6987 328 0 1.00000000 1.00000000 1.00000000
H 9.35947052 4.79846037 16.53335592 6988 328 0 1.00000000 1.00000000 1.00000000
H 10.66157581 7.42674996 15.56051090 6989 328 0 1.00000000 1.00000000 1.00000000
H 11.55722607 6.35355664 16.62934598 6990 328 0 1.00000000 1.00000000 1.00000000
H 9.74237598 6.44645818 18.28379792 6991 328 0 1.00000000 1.00000000 1.00000000
H 8.70550188 7.35959910 17.10157846 6992 328 0 1.00000000 1.00000000 1.00000000
H 9.57093632 8.72775607 18.79051656 6993 328 0 1.00000000 1.00000000 1.00000000
H 10.39118377 9.28095452 17.39240024 6994 328 0 1.00000000 1.00000000 1.00000000
H 11.95206754 8.98721018 19.47761655 6995 328 0 1.00000000 1.00000000 1.00000000
H 12.38682850 7.95117015 18.11507887 6996 328 0 1.00000000 1.00000000 1.00000000
H 11.59101631 7.37692967 19.53427445 6997 328 0 1.00000000 1.00000000 1.00000000
C 38.47921991 54.70411553 30.88266939 6998 329 0 0.56500000 0.56500000 0.56500000
C 38.36474660 53.36118420 31.54986459 6999 329 0 0.56500000 0.56500000 0.56500000
C 38.94397444 52.25214393 30.65932447 7000 329 0 0.56500000 0.56500000 0.56500000
C 38.94851150 50.81090301 31.19254908 7001 329 0 0.56500000 0.56500000 0.56500000
C 37.51988932 50.15015284 31.24865330 7002 329 0 0.56500000 0.56500000 0.56500000
C 36.71642800 50.30240029 29.96458716 7003 329 0 0.56500000 0.56500000 0.56500000
C 35.46030084 49.58617713 29.95360250 7004 329 0 0.56500000 0.56500000 0.56500000
H 37.98685158 54.81918298 29.94665689 7005 329 0 1.00000000 1.00000000 1.00000000
H 39.51253386 54.82463495 30.60455352 7006 329 0 1.00000000 1.00000000 1.00000000
H 38.06385385 55.50303055 31.49029222 7007 329 0 1.00000000 1.00000000 1.00000000
H 37.23642755 53.18803363 31.61088990 7008 329 0 1.00000000 1.00000000 1.00000000
H 38.78596650 53.38592934 32.53951332 7009 329 0 1.00000000 1.00000000 1.00000000
H 39.99163367 52.58870149 30.32714205 7010 329 0 1.00000000 1.00000000 1.00000000
H 38.36444571 52.27621973 29.75317963 7011 329 0 1.00000000 1.00000000 1.00000000
H 39.43947661 50.76856790 32.21020603 7012 329 0 1.00000000 1.00000000 1.00000000
H 39.60322485 50.27348804 30.42611166 7013 329 0 1.00000000 1.00000000 1.00000000
H 36.92744758 50.57617712 32.08446861 7014 329 0 1.00000000 1.00000000 1.00000000
H 37.66224739 49.11859142 31.53606894 7015 329 0 1.00000000 1.00000000 1.00000000
H 37.38430981 49.93622599 29.14351099 7016 329 0 1.00000000 1.00000000 1.00000000
H 36.67596844 51.38078503 29.69274832 7017 329 0 1.00000000 1.00000000 1.00000000
H 35.66441871 48.53434023 30.22295672 7018 329 0 1.00000000 1.00000000 1.00000000
H 34.83008916 49.61500704 29.07423575 7019 329 0 1.00000000 1.00000000 1.00000000
H 34.80056639 49.98201307 30.74910880 7020 329 0 1.00000000 1.00000000 1.00000000
C 23.11903743 13.06881105 -2.54977004 7021 330 0 0.56500000 0.56500000 0.56500000
C 23.42931454 14.47919610 -2.92058728 7022 330 0 0.56500000 0.56500000 0.56500000
C 22.54749849 15.48420749 -2.14248123 7023 330 0 0.56500000 0.56500000 0.56500000
C 22.66132568 16.83515091 -2.87663309 7024 330 0 0.56500000 0.56500000 0.56500000
C 21.90367524 16.97245940 -4.14379182 7025 330 0 0.56500000 0.56500000 0.56500000
C 22.17541567 18.37948825 -4.77373503 7026 330 0 0.56500000 0.56500000 0.56500000
C 21.71767047 18.42716198 -6.17814525 7027 330 0 0.56500000 0.56500000 0.56500000
H 23.85112647 12.24253357 -2.96988705 7028 330 0 1.00000000 1.00000000 1.00000000
H 22.12247366 12.73032345 -2.90262978 7029 330 0 1.00000000 1.00000000 1.00000000
H 23.15721574 12.99824046 -1.45981521 7030 330 0 1.00000000 1.00000000 1.00000000
H 23.12690432 14.63070395 -3.99134312 7031 330 0 1.00000000 1.00000000 1.00000000
H 24.52255963 14.72631284 -2.92191612 7032 330 0 1.00000000 1.00000000 1.00000000
H 22.94437253 15.56346247 -1.18886519 7033 330 0 1.00000000 1.00000000 1.00000000
H 21.53831468 15.08470932 -2.15328843 7034 330 0 1.00000000 1.00000000 1.00000000
H 23.70359626 17.12557659 -2.98967421 7035 330 0 1.00000000 1.00000000 1.00000000
H 22.21232017 17.61475970 -2.13183177 7036 330 0 1.00000000 1.00000000 1.00000000
H 20.78180214 16.95817837 -4.09018923 7037 330 0 1.00000000 1.00000000 1.00000000
H 22.26920115 16.19286833 -4.91138869 7038 330 0 1.00000000 1.00000000 1.00000000
H 23.17484730 18.70715047 -4.57136760 7039 330 0 1.00000000 1.00000000 1.00000000
H 21.53210482 19.10107775 -4.21884130 7040 330 0 1.00000000 1.00000000 1.00000000
H 20.57519623 18.51235397 -6.28105895 7041 330 0 1.00000000 1.00000000 1.00000000
H 21.93517147 17.52656615 -6.74961877 7042 330 0 1.00000000 1.00000000 1.00000000
H 22.03264594 19.25348573 -6.76167387 7043 330 0 1.00000000 1.00000000 1.00000000
C 3.42845925 17.50354242 20.08607166 7044 331 0 0.56500000 0.56500000 0.56500000
C 4.78252956 18.18764846 20.14213220 7045 331 0 0.56500000 0.56500000 0.56500000
C 5.94582451 17.20607585 20.39104130 7046 331 0 0.56500000 0.56500000 0.56500000
C 7.27724355 17.98277568 20.90581413 7047 331 0 0.56500000 0.56500000 0.56500000
C 7.11745609 18.72820776 22.17825834 7048 331 0 0.56500000 0.56500000 0.56500000
C 8.45877582 19.42903918 22.69250718 7049 331 0 0.56500000 0.56500000 0.56500000
C 8.37879433 20.93246457 22.36366372 7050 331 0 0.56500000 0.56500000 0.56500000
H 2.51393834 18.12244463 19.92851984 7051 331 0 1.00000000 1.00000000 1.00000000
H 3.30004396 16.90218318 21.00257764 7052 331 0 1.00000000 1.00000000 1.00000000
H 3.44600697 16.75381032 19.30056475 7053 331 0 1.00000000 1.00000000 1.00000000
H 4.85910297 18.85281709 21.05289727 7054 331 0 1.00000000 1.00000000 1.00000000
H 4.96024736 18.91988086 19.31419032 7055 331 0 1.00000000 1.00000000 1.00000000
H 6.18585406 16.62524493 19.46370940 7056 331 0 1.00000000 1.00000000 1.00000000
H 5.65634445 16.45114379 21.12233844 7057 331 0 1.00000000 1.00000000 1.00000000
H 7.64396530 18.70948677 20.09430237 7058 331 0 1.00000000 1.00000000 1.00000000
H 7.98205166 17.18510533 20.93835789 7059 331 0 1.00000000 1.00000000 1.00000000
H 6.72540885 18.10437501 22.95416009 7060 331 0 1.00000000 1.00000000 1.00000000
H 6.44311159 19.55980820 21.97846381 7061 331 0 1.00000000 1.00000000 1.00000000
H 9.38530280 18.98645080 22.35719405 7062 331 0 1.00000000 1.00000000 1.00000000
H 8.41454679 19.27458971 23.78936913 7063 331 0 1.00000000 1.00000000 1.00000000
H 9.30761654 21.43252535 22.55454499 7064 331 0 1.00000000 1.00000000 1.00000000
H 7.60180980 21.48908046 22.87721514 7065 331 0 1.00000000 1.00000000 1.00000000
H 8.26224154 21.06300324 21.27192395 7066 331 0 1.00000000 1.00000000 1.00000000
C 49.42552082 24.27937390 22.17704425 7067 332 0 0.56500000 0.56500000 0.56500000
C 49.47402660 24.74071932 23.62687392 7068 332 0 0.56500000 0.56500000 0.56500000
C 48.24664063 25.58921031 24.04926220 7069 332 0 0.56500000 0.56500000 0.56500000
C 46.90171136 24.84127620 24.08220693 7070 332 0 0.56500000 0.56500000 0.56500000
C 45.74840270 25.73026221 24.19009839 7071 332 0 0.56500000 0.56500000 0.56500000
C 44.40605151 25.21311888 23.75448466 7072 332 0 0.56500000 0.56500000 0.56500000
C 43.96496372 23.90179350 24.43825528 7073 332 0 0.56500000 0.56500000 0.56500000
H 49.50886541 25.10567878 21.46975013 7074 332 0 1.00000000 1.00000000 1.00000000
H 48.52816917 23.64258325 22.09059854 7075 332 0 1.00000000 1.00000000 1.00000000
H 50.28794838 23.61688603 21.92447809 7076 332 0 1.00000000 1.00000000 1.00000000
H 50.33420325 25.29167455 23.92391319 7077 332 0 1.00000000 1.00000000 1.00000000
H 49.51672178 23.88536101 24.36882368 7078 332 0 1.00000000 1.00000000 1.00000000
H 48.09857906 26.49340256 23.40963249 7079 332 0 1.00000000 1.00000000 1.00000000
H 48.31649432 26.07748482 25.05635635 7080 332 0 1.00000000 1.00000000 1.00000000
H 46.93915964 24.12283697 24.86656339 7081 332 0 1.00000000 1.00000000 1.00000000
H 46.81700679 24.21630259 23.16861797 7082 332 0 1.00000000 1.00000000 1.00000000
H 46.03163816 26.63118190 23.55742948 7083 332 0 1.00000000 1.00000000 1.00000000
H 45.76291144 26.21471646 25.16783946 7084 332 0 1.00000000 1.00000000 1.00000000
H 44.59477923 25.10216961 22.70497640 7085 332 0 1.00000000 1.00000000 1.00000000
H 43.78027007 26.06666343 23.67643028 7086 332 0 1.00000000 1.00000000 1.00000000
H 44.00765767 24.03876863 25.51766051 7087 332 0 1.00000000 1.00000000 1.00000000
H 44.73463475 23.20769666 24.17623247 7088 332 0 1.00000000 1.00000000 1.00000000
H 43.02784392 23.44103908 24.12731314 7089 332 0 1.00000000 1.00000000 1.00000000
C 23.27209135 43.96975201 11.25933880 7090 333 0 0.56500000 0.56500000 0.56500000
C 24.58818569 44.77869862 11.06001831 7091 333 0 0.56500000 0.56500000 0.56500000
C 25.46793072 44.34035151 9.88964467 7092 333 0 0.56500000 0.56500000 0.56500000
C 25.97363360 42.86882254 10.06464941 7093 333 0 0.56500000 0.56500000 0.56500000
C 27.15153506 42.38201202 9.32334764 7094 333 0 0.56500000 0.56500000 0.56500000
C 27.62539036 40.99120211 9.76927903 7095 333 0 0.56500000 0.56500000 0.56500000
C 26.72638357 39.79819506 9.35712944 7096 333 0 0.56500000 0.56500000 0.56500000
H 22.88307652 44.12510952 12.27656058 7097 333 0 1.00000000 1.00000000 1.00000000
H 23.46253374 42.90401312 11.16867283 7098 333 0 1.00000000 1.00000000 1.00000000
H 22.47212558 44.22294145 10.54541502 7099 333 0 1.00000000 1.00000000 1.00000000
H 25.08711842 44.65994217 12.01295433 7100 333 0 1.00000000 1.00000000 1.00000000
H 24.33501771 45.83912269 10.93229802 7101 333 0 1.00000000 1.00000000 1.00000000
H 26.31325791 45.02266014 9.58945126 7102 333 0 1.00000000 1.00000000 1.00000000
H 24.83999734 44.34480194 8.97232104 7103 333 0 1.00000000 1.00000000 1.00000000
H 25.12800193 42.15987001 9.95826039 7104 333 0 1.00000000 1.00000000 1.00000000
H 26.15748749 42.75845610 11.16104216 7105 333 0 1.00000000 1.00000000 1.00000000
H 27.92497770 43.10954147 9.56032082 7106 333 0 1.00000000 1.00000000 1.00000000
H 27.08148640 42.45306987 8.25974697 7107 333 0 1.00000000 1.00000000 1.00000000
H 27.73990611 40.98383925 10.84744091 7108 333 0 1.00000000 1.00000000 1.00000000
H 28.59522940 40.76661890 9.46627018 7109 333 0 1.00000000 1.00000000 1.00000000
H 26.89387069 39.48232493 8.33592956 7110 333 0 1.00000000 1.00000000 1.00000000
H 25.67185931 40.16048095 9.44354174 7111 333 0 1.00000000 1.00000000 1.00000000
H 26.76585000 38.96163397 10.08946045 7112 333 0 1.00000000 1.00000000 1.00000000
C 50.10192776 11.84268200 31.75696030 7113 334 0 0.56500000 0.56500000 0.56500000
C 49.40019274 10.79433207 32.47434875 7114 334 0 0.56500000 0.56500000 0.56500000
C 49.64852184 9.33545268 32.04076585 7115 334 0 0.56500000 0.56500000 0.56500000
C 48.94511934 8.34089045 32.85180368 7116 334 0 0.56500000 0.56500000 0.56500000
C 49.33375703 6.82938318 32.51185643 7117 334 0 0.56500000 0.56500000 0.56500000
C 48.61046384 5.86973204 33.41470291 7118 334 0 0.56500000 0.56500000 0.56500000
C 48.98055312 5.65403823 34.84776184 7119 334 0 0.56500000 0.56500000 0.56500000
H 49.82542747 11.95762305 30.66040695 7120 334 0 1.00000000 1.00000000 1.00000000
H 51.17279547 11.65137732 31.71335738 7121 334 0 1.00000000 1.00000000 1.00000000
H 49.87912528 12.81743336 32.22010952 7122 334 0 1.00000000 1.00000000 1.00000000
H 48.33529082 10.95205829 32.38656816 7123 334 0 1.00000000 1.00000000 1.00000000
H 49.69601859 10.80787571 33.52085895 7124 334 0 1.00000000 1.00000000 1.00000000
H 50.71163908 9.13738990 32.10137688 7125 334 0 1.00000000 1.00000000 1.00000000
H 49.41800880 9.21641039 30.96780124 7126 334 0 1.00000000 1.00000000 1.00000000
H 47.83840474 8.35340878 32.71919180 7127 334 0 1.00000000 1.00000000 1.00000000
H 49.04837726 8.50419572 33.92829855 7128 334 0 1.00000000 1.00000000 1.00000000
H 50.42214754 6.67476679 32.52864907 7129 334 0 1.00000000 1.00000000 1.00000000
H 49.01604259 6.72259852 31.49002500 7130 334 0 1.00000000 1.00000000 1.00000000
H 48.71707125 4.85076905 32.95424247 7131 334 0 1.00000000 1.00000000 1.00000000
H 47.55544023 6.02997770 33.33515684 7132 334 0 1.00000000 1.00000000 1.00000000
H 49.96837837 5.13151250 35.04686322 7133 334 0 1.00000000 1.00000000 1.00000000
H 48.10686205 5.11526076 35.26823392 7134 334 0 1.00000000 1.00000000 1.00000000
H 49.12527230 6.58504741 35.42009546 7135 334 0 1.00000000 1.00000000 1.00000000
C 6.21225042 31.51943822 21.42937956 7136 335 0 0.56500000 0.56500000 0.56500000
C 7.25158677 32.22789031 22.32157733 7137 335 0 0.56500000 0.56500000 0.56500000
C 6.89468466 32.27152596 23.83530769 7138 335 0 0.56500000 0.56500000 0.56500000
C 5.90819816 33.45476175 24.19418851 7139 335 0 0.56500000 0.56500000 0.56500000
C 5.49371748 33.57414440 25.70495757 7140 335 0 0.56500000 0.56500000 0.56500000
C 4.80562198 34.85262319 26.13869597 7141 335 0 0.56500000 0.56500000 0.56500000
C 5.71974840 36.04392777 26.11713393 7142 335 0 0.56500000 0.56500000 0.56500000
H 5.20362461 31.84939822 21.72751996 7143 335 0 1.00000000 1.00000000 1.00000000
H 6.17209788 30.45478123 21.66624631 7144 335 0 1.00000000 1.00000000 1.00000000
H 6.25400647 31.66578145 20.34012549 7145 335 0 1.00000000 1.00000000 1.00000000
H 7.35081764 33.28900227 22.01664167 7146 335 0 1.00000000 1.00000000 1.00000000
H 8.16933162 31.64433242 22.17756602 7147 335 0 1.00000000 1.00000000 1.00000000
H 7.76990205 32.25565290 24.46209310 7148 335 0 1.00000000 1.00000000 1.00000000
H 6.55976879 31.30122495 24.18642465 7149 335 0 1.00000000 1.00000000 1.00000000
H 5.09142496 33.28204168 23.46375477 7150 335 0 1.00000000 1.00000000 1.00000000
H 6.49489300 34.33326723 23.78083332 7151 335 0 1.00000000 1.00000000 1.00000000
H 6.37811997 33.57754013 26.39948889 7152 335 0 1.00000000 1.00000000 1.00000000
H 4.90222802 32.65082260 26.04902062 7153 335 0 1.00000000 1.00000000 1.00000000
H 4.46529458 34.58219518 27.14797867 7154 335 0 1.00000000 1.00000000 1.00000000
H 3.82764699 35.00067006 25.45231159 7155 335 0 1.00000000 1.00000000 1.00000000
H 6.47608846 35.76094431 26.87325192 7156 335 0 1.00000000 1.00000000 1.00000000
H 5.27138934 36.95265837 26.47837200 7157 335 0 1.00000000 1.00000000 1.00000000
H 6.13727341 36.16589161 25.13085311 7158 335 0 1.00000000 1.00000000 1.00000000
C 18.57719126 21.93704444 25.84880791 7159 336 0 0.56500000 0.56500000 0.56500000
C 17.78582863 22.08344647 27.10950902 7160 336 0 0.56500000 0.56500000 0.56500000
C 16.80346164 23.28931116 26.94175273 7161 336 0 0.56500000 0.56500000 0.56500000
C 15.80759658 23.50336179 28.09809416 7162 336 0 0.56500000 0.56500000 0.56500000
C 14.82313151 24.70140852 27.85653546 7163 336 0 0.56500000 0.56500000 0.56500000
C 15.37600772 26.16411556 28.08846467 7164 336 0 0.56500000 0.56500000 0.56500000
C 14.40451081 27.28966520 27.69028989 7165 336 0 0.56500000 0.56500000 0.56500000
H 19.00696534 22.92159510 25.59486597 7166 336 0 1.00000000 1.00000000 1.00000000
H 17.82839381 21.75328928 25.05034139 7167 336 0 1.00000000 1.00000000 1.00000000
H 19.27677336 21.13281553 25.84701790 7168 336 0 1.00000000 1.00000000 1.00000000
H 18.38783606 22.16768478 28.07979335 7169 336 0 1.00000000 1.00000000 1.00000000
H 17.19222387 21.11304223 27.26823956 7170 336 0 1.00000000 1.00000000 1.00000000
H 16.18355936 23.05844856 26.08257920 7171 336 0 1.00000000 1.00000000 1.00000000
H 17.24805631 24.28189939 26.73795164 7172 336 0 1.00000000 1.00000000 1.00000000
H 16.15930491 23.75759779 29.14204904 7173 336 0 1.00000000 1.00000000 1.00000000
H 15.14772483 22.61526881 28.32480840 7174 336 0 1.00000000 1.00000000 1.00000000
H 13.86350228 24.59412988 28.34311519 7175 336 0 1.00000000 1.00000000 1.00000000
H 14.56534422 24.75972484 26.71749887 7176 336 0 1.00000000 1.00000000 1.00000000
H 16.41205147 26.16373478 27.66461954 7177 336 0 1.00000000 1.00000000 1.00000000
H 15.54570504 26.32816202 29.23961950 7178 336 0 1.00000000 1.00000000 1.00000000
H 13.73109191 27.65213651 28.46867618 7179 336 0 1.00000000 1.00000000 1.00000000
H 13.77788441 27.04776230 26.82056258 7180 336 0 1.00000000 1.00000000 1.00000000
H 14.91141543 28.16208323 27.31029597 7181 336 0 1.00000000 1.00000000 1.00000000
C 35.38091753 8.47586520 36.56396408 7182 337 0 0.56500000 0.56500000 0.56500000
C 36.56789345 7.59394343 36.60069538 7183 337 0 0.56500000 0.56500000 0.56500000
C 36.93200627 6.96974194 35.21010818 7184 337 0 0.56500000 0.56500000 0.56500000
C 38.31509231 6.39792526 35.11041454 7185 337 0 0.56500000 0.56500000 0.56500000
C 38.62988574 5.68783877 33.85802416 7186 337 0 0.56500000 0.56500000 0.56500000
C 40.06104978 5.47496671 33.60072933 7187 337 0 0.56500000 0.56500000 0.56500000
C 40.66512611 4.71349999 32.41812942 7188 337 0 0.56500000 0.56500000 0.56500000
H 34.89067494 8.66984366 37.55232224 7189 337 0 1.00000000 1.00000000 1.00000000
H 34.51767858 8.01352788 35.97551528 7190 337 0 1.00000000 1.00000000 1.00000000
H 35.57628873 9.40438693 36.04607338 7191 337 0 1.00000000 1.00000000 1.00000000
H 36.41936017 6.73445932 37.17074800 7192 337 0 1.00000000 1.00000000 1.00000000
H 37.37922701 8.09391701 37.12935252 7193 337 0 1.00000000 1.00000000 1.00000000
H 36.88665487 7.77068446 34.43586062 7194 337 0 1.00000000 1.00000000 1.00000000
H 36.10611103 6.18608548 35.14211601 7195 337 0 1.00000000 1.00000000 1.00000000
H 38.64922793 5.84455009 36.04675052 7196 337 0 1.00000000 1.00000000 1.00000000
H 38.90464462 7.28308812 35.35852958 7197 337 0 1.00000000 1.00000000 1.00000000
H 38.22667930 6.31356898 33.10078558 7198 337 0 1.00000000 1.00000000 1.00000000
H 38.08799823 4.76644358 33.77223871 7199 337 0 1.00000000 1.00000000 1.00000000
H 40.56267452 5.07776920 34.52446303 7200 337 0 1.00000000 1.00000000 1.00000000
H 40.39096051 6.50819000 33.72891156 7201 337 0 1.00000000 1.00000000 1.00000000
H 40.05922323 3.77514588 32.18570246 7202 337 0 1.00000000 1.00000000 1.00000000
H 41.61318895 4.37439021 32.75776686 7203 337 0 1.00000000 1.00000000 1.00000000
H 40.77089635 5.27927898 31.52777795 7204 337 0 1.00000000 1.00000000 1.00000000
C 32.09768393 14.15114899 24.09872556 7205 338 0 0.56500000 0.56500000 0.56500000
C 33.49653213 13.70107521 24.59584155 7206 338 0 0.56500000 0.56500000 0.56500000
C 34.62031974 14.50802894 24.04729502 7207 338 0 0.56500000 0.56500000 0.56500000
C 35.98220850 13.85878627 24.35542906 7208 338 0 0.56500000 0.56500000 0.56500000
C 36.09358926 13.28673677 25.83786659 7209 338 0 0.56500000 0.56500000 0.56500000
C 37.53362455 12.74704992 26.11662464 7210 338 0 0.56500000 0.56500000 0.56500000
C 37.55067722 11.94392141 27.41624824 7211 338 0 0.56500000 0.56500000 0.56500000
H 31.27696791 13.50772380 24.36217363 7212 338 0 1.00000000 1.00000000 1.00000000
H 32.18278244 14.09752800 23.03050491 7213 338 0 1.00000000 1.00000000 1.00000000
H 31.88121561 15.17454077 24.37466388 7214 338 0 1.00000000 1.00000000 1.00000000
H 33.56710797 12.60331954 24.47708611 7215 338 0 1.00000000 1.00000000 1.00000000
H 33.53013897 13.76700265 25.72398691 7216 338 0 1.00000000 1.00000000 1.00000000
H 34.62789905 15.45349751 24.59074817 7217 338 0 1.00000000 1.00000000 1.00000000
H 34.55259197 14.78291620 23.00104951 7218 338 0 1.00000000 1.00000000 1.00000000
H 36.74596742 14.63422433 24.21706359 7219 338 0 1.00000000 1.00000000 1.00000000
H 36.27867346 13.08287107 23.66919546 7220 338 0 1.00000000 1.00000000 1.00000000
H 35.41508592 12.45001057 25.92497059 7221 338 0 1.00000000 1.00000000 1.00000000
H 36.00982358 14.15455160 26.56875186 7222 338 0 1.00000000 1.00000000 1.00000000
H 38.16579892 13.63791430 26.14429030 7223 338 0 1.00000000 1.00000000 1.00000000
H 37.85338286 12.04746403 25.36196355 7224 338 0 1.00000000 1.00000000 1.00000000
H 36.56224455 11.47363990 27.54403410 7225 338 0 1.00000000 1.00000000 1.00000000
H 37.67025842 12.43995438 28.38214239 7226 338 0 1.00000000 1.00000000 1.00000000
H 38.33831822 11.13699564 27.31260900 7227 338 0 1.00000000 1.00000000 1.00000000
C 20.12085964 39.01328177 24.88594700 7228 339 0 0.56500000 0.56500000 0.56500000
C 21.16292394 37.94651646 25.29180320 7229 339 0 0.56500000 0.56500000 0.56500000
C 22.55395095 38.36427201 24.68030040 7230 339 0 0.56500000 0.56500000 0.56500000
C 23.59408422 37.29796875 24.58474836 7231 339 0 0.56500000 0.56500000 0.56500000
C 24.85301124 37.68454673 23.72514130 7232 339 0 0.56500000 0.56500000 0.56500000
C 24.56810751 38.09072912 22.25365501 7233 339 0 0.56500000 0.56500000 0.56500000
C 25.79803330 38.14574972 21.45488727 7234 339 0 0.56500000 0.56500000 0.56500000
H 19.95506808 39.00466359 23.81435267 7235 339 0 1.00000000 1.00000000 1.00000000
H 20.56994293 39.93723000 25.32321511 7236 339 0 1.00000000 1.00000000 1.00000000
H 19.19397408 38.83265816 25.36913097 7237 339 0 1.00000000 1.00000000 1.00000000
H 20.91623123 36.93851905 25.06656937 7238 339 0 1.00000000 1.00000000 1.00000000
H 21.23956135 38.05585481 26.38590919 7239 339 0 1.00000000 1.00000000 1.00000000
H 22.88261404 39.20104836 25.20451071 7240 339 0 1.00000000 1.00000000 1.00000000
H 22.26815041 38.74792048 23.63182801 7241 339 0 1.00000000 1.00000000 1.00000000
H 23.10606181 36.36611467 24.02580021 7242 339 0 1.00000000 1.00000000 1.00000000
H 23.96763000 36.85395680 25.49281161 7243 339 0 1.00000000 1.00000000 1.00000000
H 25.50730271 36.81358376 23.69834160 7244 339 0 1.00000000 1.00000000 1.00000000
H 25.26275563 38.54356595 24.18131635 7245 339 0 1.00000000 1.00000000 1.00000000
H 24.09530781 39.09009519 22.15968429 7246 339 0 1.00000000 1.00000000 1.00000000
H 23.80405270 37.36990633 21.91620460 7247 339 0 1.00000000 1.00000000 1.00000000
H 26.47993816 38.73572671 22.01325729 7248 339 0 1.00000000 1.00000000 1.00000000
H 25.69680533 38.78238359 20.56281333 7249 339 0 1.00000000 1.00000000 1.00000000
H 26.22816525 37.18033341 21.20847690 7250 339 0 1.00000000 1.00000000 1.00000000
C 26.42674792 49.03514169 18.90099358 7251 340 0 0.56500000 0.56500000 0.56500000
C 27.77966224 48.32530246 18.90856105 7252 340 0 0.56500000 0.56500000 0.56500000
C 28.80974703 48.75244251 19.92347835 7253 340 0 0.56500000 0.56500000 0.56500000
C 29.32529922 50.20825271 19.85681975 7254 340 0 0.56500000 0.56500000 0.56500000
C 30.75084925 50.34475991 20.39642689 7255 340 0 0.56500000 0.56500000 0.56500000
C 31.21551191 51.78379372 20.18327469 7256 340 0 0.56500000 0.56500000 0.56500000
C 30.54239607 52.84433674 20.94092372 7257 340 0 0.56500000 0.56500000 0.56500000
H 25.88163972 48.76541068 19.83272290 7258 340 0 1.00000000 1.00000000 1.00000000
H 25.86203078 48.88725817 17.96814206 7259 340 0 1.00000000 1.00000000 1.00000000
H 26.58084175 50.08075282 19.06744118 7260 340 0 1.00000000 1.00000000 1.00000000
H 28.25603341 48.53403073 17.94623513 7261 340 0 1.00000000 1.00000000 1.00000000
H 27.68782875 47.27279959 18.97381177 7262 340 0 1.00000000 1.00000000 1.00000000
H 29.72735403 48.13449429 19.86704087 7263 340 0 1.00000000 1.00000000 1.00000000
H 28.46367346 48.44928391 20.95602900 7264 340 0 1.00000000 1.00000000 1.00000000
H 28.70562181 50.90447445 20.48505554 7265 340 0 1.00000000 1.00000000 1.00000000
H 29.26937766 50.48712270 18.80508179 7266 340 0 1.00000000 1.00000000 1.00000000
H 31.58164360 49.74763173 19.98847673 7267 340 0 1.00000000 1.00000000 1.00000000
H 30.60778634 50.09230473 21.52991627 7268 340 0 1.00000000 1.00000000 1.00000000
H 31.08689409 51.93675050 19.12754070 7269 340 0 1.00000000 1.00000000 1.00000000
H 32.30954771 51.89283902 20.41367435 7270 340 0 1.00000000 1.00000000 1.00000000
H 30.89294786 53.79581002 20.62260365 7271 340 0 1.00000000 1.00000000 1.00000000
H 30.76019931 52.73647562 21.99187615 7272 340 0 1.00000000 1.00000000 1.00000000
H 29.47241020 52.83870478 20.78735797 7273 340 0 1.00000000 1.00000000 1.00000000
C 26.12076275 32.80510275 28.98927119 7274 341 0 0.56500000 0.56500000 0.56500000
C 25.64658848 33.11484073 27.55105988 7275 341 0 0.56500000 0.56500000 0.56500000
C 26.69691949 33.12528461 26.46244625 7276 341 0 0.56500000 0.56500000 0.56500000
C 26.13955764 33.31953025 25.10418133 7277 341 0 0.56500000 0.56500000 0.56500000
C 27.13480948 33.30237988 23.97800001 7278 341 0 0.56500000 0.56500000 0.56500000
C 27.68347115 31.89226339 23.71028383 7279 341 0 0.56500000 0.56500000 0.56500000
C 28.80676207 31.74126498 22.69691158 7280 341 0 0.56500000 0.56500000 0.56500000
H 25.32337456 32.52035031 29.65224708 7281 341 0 1.00000000 1.00000000 1.00000000
H 26.49084857 33.80286157 29.32618557 7282 341 0 1.00000000 1.00000000 1.00000000
H 26.97196166 32.13818890 29.05523497 7283 341 0 1.00000000 1.00000000 1.00000000
H 25.11500546 34.07986589 27.49391483 7284 341 0 1.00000000 1.00000000 1.00000000
H 24.89071380 32.43565627 27.19828996 7285 341 0 1.00000000 1.00000000 1.00000000
H 27.29835028 32.16959415 26.60520895 7286 341 0 1.00000000 1.00000000 1.00000000
H 27.48796347 33.87254162 26.75692997 7287 341 0 1.00000000 1.00000000 1.00000000
H 25.63563111 34.25342034 25.11766147 7288 341 0 1.00000000 1.00000000 1.00000000
H 25.36396053 32.62680713 24.78581102 7289 341 0 1.00000000 1.00000000 1.00000000
H 27.95246005 34.04150212 24.12957374 7290 341 0 1.00000000 1.00000000 1.00000000
H 26.54779455 33.55455279 23.11531171 7291 341 0 1.00000000 1.00000000 1.00000000
H 26.96907285 31.18452445 23.40771465 7292 341 0 1.00000000 1.00000000 1.00000000
H 28.08480900 31.56740155 24.64891363 7293 341 0 1.00000000 1.00000000 1.00000000
H 29.30202561 30.76539507 22.77590338 7294 341 0 1.00000000 1.00000000 1.00000000
H 29.50984713 32.63653640 22.89129036 7295 341 0 1.00000000 1.00000000 1.00000000
H 28.59026764 31.75762348 21.66029835 7296 341 0 1.00000000 1.00000000 1.00000000
C 35.07170753 36.10586782 -6.19213431 7297 342 0 0.56500000 0.56500000 0.56500000
C 35.03896059 35.56962807 -4.74546291 7298 342 0 0.56500000 0.56500000 0.56500000
C 36.33211304 34.85267497 -4.49469245 7299 342 0 0.56500000 0.56500000 0.56500000
C 36.64597012 34.59650000 -3.01846903 7300 342 0 0.56500000 0.56500000 0.56500000
C 36.96432272 35.89410365 -2.27539532 7301 342 0 0.56500000 0.56500000 0.56500000
C 37.07134459 35.67001004 -0.74760674 7302 342 0 0.56500000 0.56500000 0.56500000
C 35.73909902 35.81879842 -0.05198271 7303 342 0 0.56500000 0.56500000 0.56500000
H 35.75219134 36.92444868 -6.37574863 7304 342 0 1.00000000 1.00000000 1.00000000
H 34.01309908 36.47960802 -6.33142869 7305 342 0 1.00000000 1.00000000 1.00000000
H 35.38187845 35.42352082 -6.93759292 7306 342 0 1.00000000 1.00000000 1.00000000
H 34.20514819 34.86766078 -4.66464696 7307 342 0 1.00000000 1.00000000 1.00000000
H 34.88475516 36.37684733 -4.00654430 7308 342 0 1.00000000 1.00000000 1.00000000
H 37.19219450 35.37702088 -4.95697868 7309 342 0 1.00000000 1.00000000 1.00000000
H 36.38115676 33.94983213 -5.08152769 7310 342 0 1.00000000 1.00000000 1.00000000
H 37.56858776 34.04276508 -2.97184636 7311 342 0 1.00000000 1.00000000 1.00000000
H 35.80978533 34.18741103 -2.47106103 7312 342 0 1.00000000 1.00000000 1.00000000
H 36.21733555 36.68512920 -2.46334537 7313 342 0 1.00000000 1.00000000 1.00000000
H 37.85706319 36.32419444 -2.68499091 7314 342 0 1.00000000 1.00000000 1.00000000
H 37.82519200 36.37965226 -0.32248647 7315 342 0 1.00000000 1.00000000 1.00000000
H 37.52832889 34.65306593 -0.56768525 7316 342 0 1.00000000 1.00000000 1.00000000
H 35.29184346 36.83324194 -0.13664231 7317 342 0 1.00000000 1.00000000 1.00000000
H 35.68059151 35.74649996 1.03447828 7318 342 0 1.00000000 1.00000000 1.00000000
H 34.93765808 35.10477366 -0.42909173 7319 342 0 1.00000000 1.00000000 1.00000000
C 26.12147896 14.01481435 11.04931178 7320 343 0 0.56500000 0.56500000 0.56500000
C 25.18358352 14.54228372 9.99082494 7321 343 0 0.56500000 0.56500000 0.56500000
C 23.96638054 15.27184533 10.69980357 7322 343 0 0.56500000 0.56500000 0.56500000
C 22.96337689 14.23956793 11.26965275 7323 343 0 0.56500000 0.56500000 0.56500000
C 21.80844139 14.94912039 12.01356320 7324 343 0 0.56500000 0.56500000 0.56500000
C 20.74868384 14.17160554 12.68096081 7325 343 0 0.56500000 0.56500000 0.56500000
C 19.83797176 15.18528787 13.41218182 7326 343 0 0.56500000 0.56500000 0.56500000
H 26.51197216 14.91991143 11.60087267 7327 343 0 1.00000000 1.00000000 1.00000000
H 26.94647088 13.49395977 10.57889723 7328 343 0 1.00000000 1.00000000 1.00000000
H 25.69392382 13.31955944 11.84118161 7329 343 0 1.00000000 1.00000000 1.00000000
H 24.76154873 13.79883026 9.25389156 7330 343 0 1.00000000 1.00000000 1.00000000
H 25.63099645 15.28645896 9.36167017 7331 343 0 1.00000000 1.00000000 1.00000000
H 23.49324969 16.00260031 10.04024515 7332 343 0 1.00000000 1.00000000 1.00000000
H 24.30564632 15.98671539 11.52939689 7333 343 0 1.00000000 1.00000000 1.00000000
H 23.53138188 13.59301551 11.91344155 7334 343 0 1.00000000 1.00000000 1.00000000
H 22.52378409 13.64003943 10.41497186 7335 343 0 1.00000000 1.00000000 1.00000000
H 21.16412423 15.60942464 11.40606065 7336 343 0 1.00000000 1.00000000 1.00000000
H 22.37667441 15.61100014 12.82316761 7337 343 0 1.00000000 1.00000000 1.00000000
H 21.23771286 13.38739926 13.20456580 7338 343 0 1.00000000 1.00000000 1.00000000
H 20.02175341 13.74974943 11.99258291 7339 343 0 1.00000000 1.00000000 1.00000000
H 19.22961035 14.60102095 14.14798861 7340 343 0 1.00000000 1.00000000 1.00000000
H 19.20834842 15.71365180 12.71669801 7341 343 0 1.00000000 1.00000000 1.00000000
H 20.32528215 15.96451292 14.04182630 7342 343 0 1.00000000 1.00000000 1.00000000
C 43.69827333 7.06976554 17.87277706 7343 344 0 0.56500000 0.56500000 0.56500000
C 45.14797350 6.45912660 17.99882482 7344 344 0 0.56500000 0.56500000 0.56500000
C 45.96423486 7.07032902 16.94873365 7345 344 0 0.56500000 0.56500000 0.56500000
C 47.47480838 6.79483308 17.09249051 7346 344 0 0.56500000 0.56500000 0.56500000
C 48.12730448 7.28092812 18.42482930 7347 344 0 0.56500000 0.56500000 0.56500000
C 49.56412499 6.86718703 18.48078196 7348 344 0 0.56500000 0.56500000 0.56500000
C 50.34362962 7.37890392 19.61033336 7349 344 0 0.56500000 0.56500000 0.56500000
H 42.99908415 6.88992745 18.71518178 7350 344 0 1.00000000 1.00000000 1.00000000
H 43.25624121 6.79643602 16.90218723 7351 344 0 1.00000000 1.00000000 1.00000000
H 43.93177893 8.13681647 17.79794017 7352 344 0 1.00000000 1.00000000 1.00000000
H 45.08873391 5.37283214 17.94411391 7353 344 0 1.00000000 1.00000000 1.00000000
H 45.47518036 6.67185215 19.02308696 7354 344 0 1.00000000 1.00000000 1.00000000
H 45.89260458 8.18356077 17.03522438 7355 344 0 1.00000000 1.00000000 1.00000000
H 45.54503308 6.78625091 15.93767463 7356 344 0 1.00000000 1.00000000 1.00000000
H 47.90217973 7.38127412 16.24049554 7357 344 0 1.00000000 1.00000000 1.00000000
H 47.57222009 5.72403875 16.96579218 7358 344 0 1.00000000 1.00000000 1.00000000
H 47.53615363 6.90196399 19.25898245 7359 344 0 1.00000000 1.00000000 1.00000000
H 48.05980102 8.40351821 18.44679324 7360 344 0 1.00000000 1.00000000 1.00000000
H 49.88148441 7.30380062 17.50783220 7361 344 0 1.00000000 1.00000000 1.00000000
H 49.62039568 5.81312398 18.49545078 7362 344 0 1.00000000 1.00000000 1.00000000
H 51.40667383 7.08110147 19.70431478 7363 344 0 1.00000000 1.00000000 1.00000000
H 49.86009907 7.06818127 20.50604492 7364 344 0 1.00000000 1.00000000 1.00000000
H 50.43532587 8.47580619 19.79535017 7365 344 0 1.00000000 1.00000000 1.00000000
C 42.26042270 41.95137459 -3.59176408 7366 345 0 0.56500000 0.56500000 0.56500000
C 42.06917313 42.06733155 -5.16014834 7367 345 0 0.56500000 0.56500000 0.56500000
C 41.13400336 43.24257003 -5.50412010 7368 345 0 0.56500000 0.56500000 0.56500000
C 41.14303256 43.70724655 -6.98586278 7369 345 0 0.56500000 0.56500000 0.56500000
C 40.47572001 45.06855696 -7.12260688 7370 345 0 0.56500000 0.56500000 0.56500000
C 39.95861413 45.48205122 -8.48435023 7371 345 0 0.56500000 0.56500000 0.56500000
C 41.14609628 45.50787400 -9.55248129 7372 345 0 0.56500000 0.56500000 0.56500000
H 41.35719657 41.74814689 -3.01709136 7373 345 0 1.00000000 1.00000000 1.00000000
H 42.74186864 42.87139596 -3.23790815 7374 345 0 1.00000000 1.00000000 1.00000000
H 42.98149517 41.13959480 -3.49395117 7375 345 0 1.00000000 1.00000000 1.00000000
H 41.64313678 41.10855336 -5.39677011 7376 345 0 1.00000000 1.00000000 1.00000000
H 43.06820120 42.15396163 -5.57029019 7377 345 0 1.00000000 1.00000000 1.00000000
H 41.40138007 44.05875224 -4.84452349 7378 345 0 1.00000000 1.00000000 1.00000000
H 40.05372245 43.05597806 -5.25282697 7379 345 0 1.00000000 1.00000000 1.00000000
H 40.56573453 42.97345633 -7.63224926 7380 345 0 1.00000000 1.00000000 1.00000000
H 42.17527815 43.72865813 -7.43044319 7381 345 0 1.00000000 1.00000000 1.00000000
H 41.08673716 45.96283748 -6.77125898 7382 345 0 1.00000000 1.00000000 1.00000000
H 39.69825538 45.13463015 -6.41341132 7383 345 0 1.00000000 1.00000000 1.00000000
H 39.58432050 46.52212624 -8.45697223 7384 345 0 1.00000000 1.00000000 1.00000000
H 39.16642555 44.80614732 -8.81158259 7385 345 0 1.00000000 1.00000000 1.00000000
H 41.49091736 44.49325904 -9.63974103 7386 345 0 1.00000000 1.00000000 1.00000000
H 42.04040497 46.15638366 -9.34081914 7387 345 0 1.00000000 1.00000000 1.00000000
H 40.73195171 45.81678602 -10.50705676 7388 345 0 1.00000000 1.00000000 1.00000000
C 16.11140584 2.79969984 16.16917597 7389 346 0 0.56500000 0.56500000 0.56500000
C 15.36666376 3.23983805 14.86547994 7390 346 0 0.56500000 0.56500000 0.56500000
C 13.84712067 3.01695747 15.05365543 7391 346 0 0.56500000 0.56500000 0.56500000
C 13.42795731 1.55277950 15.02534018 7392 346 0 0.56500000 0.56500000 0.56500000
C 11.94701851 1.25276106 14.75569237 7393 346 0 0.56500000 0.56500000 0.56500000
C 11.15570433 1.18117327 16.08023464 7394 346 0 0.56500000 0.56500000 0.56500000
C 9.58643810 1.04244834 15.86081177 7395 346 0 0.56500000 0.56500000 0.56500000
H 17.17242752 3.01518363 16.19783966 7396 346 0 1.00000000 1.00000000 1.00000000
H 16.25068323 1.70416360 16.33244531 7397 346 0 1.00000000 1.00000000 1.00000000
H 15.55444641 3.12587025 17.04483487 7398 346 0 1.00000000 1.00000000 1.00000000
H 15.77962689 2.83050368 13.94570319 7399 346 0 1.00000000 1.00000000 1.00000000
H 15.51875121 4.32514407 14.69384806 7400 346 0 1.00000000 1.00000000 1.00000000
H 13.31120677 3.41201954 14.21954787 7401 346 0 1.00000000 1.00000000 1.00000000
H 13.59925692 3.51057575 15.99310547 7402 346 0 1.00000000 1.00000000 1.00000000
H 13.72986315 1.06697359 16.03090007 7403 346 0 1.00000000 1.00000000 1.00000000
H 14.02913711 0.93277590 14.32683389 7404 346 0 1.00000000 1.00000000 1.00000000
H 11.96185686 0.30635268 14.17351875 7405 346 0 1.00000000 1.00000000 1.00000000
H 11.49912900 1.99130311 14.06726584 7406 346 0 1.00000000 1.00000000 1.00000000
H 11.36707683 2.05207184 16.74220969 7407 346 0 1.00000000 1.00000000 1.00000000
H 11.51387729 0.26324189 16.65735443 7408 346 0 1.00000000 1.00000000 1.00000000
H 9.17807295 1.90525872 15.34816526 7409 346 0 1.00000000 1.00000000 1.00000000
H 9.07923438 0.94822145 16.85472419 7410 346 0 1.00000000 1.00000000 1.00000000
H 9.27113618 0.25492202 15.25634939 7411 346 0 1.00000000 1.00000000 1.00000000
C 43.69682642 20.22991285 -8.49056507 7412 347 0 0.56500000 0.56500000 0.56500000
C 42.23885346 20.64184083 -8.55193861 7413 347 0 0.56500000 0.56500000 0.56500000
C 41.85398639 21.41952561 -9.85873667 7414 347 0 0.56500000 0.56500000 0.56500000
C 42.47107236 22.84449121 -9.91643017 7415 347 0 0.56500000 0.56500000 0.56500000
C 41.79269166 23.76268487 -8.93455880 7416 347 0 0.56500000 0.56500000 0.56500000
C 40.42652420 24.29761922 -9.33608162 7417 347 0 0.56500000 0.56500000 0.56500000
C 39.97362698 25.33112793 -8.39317453 7418 347 0 0.56500000 0.56500000 0.56500000
H 44.34025746 20.98019929 -8.03690069 7419 347 0 1.00000000 1.00000000 1.00000000
H 44.20647714 20.07273616 -9.42817164 7420 347 0 1.00000000 1.00000000 1.00000000
H 43.86644278 19.25894928 -7.99308198 7421 347 0 1.00000000 1.00000000 1.00000000
H 42.10715188 21.22674771 -7.62385447 7422 347 0 1.00000000 1.00000000 1.00000000
H 41.48923015 19.82877392 -8.62541189 7423 347 0 1.00000000 1.00000000 1.00000000
H 40.76603173 21.31831288 -10.08564608 7424 347 0 1.00000000 1.00000000 1.00000000
H 42.30676211 20.88403514 -10.77259783 7425 347 0 1.00000000 1.00000000 1.00000000
H 42.27745021 23.31061492 -10.85792592 7426 347 0 1.00000000 1.00000000 1.00000000
H 43.54828678 22.75298373 -9.76060993 7427 347 0 1.00000000 1.00000000 1.00000000
H 42.37497911 24.67311704 -8.66181608 7428 347 0 1.00000000 1.00000000 1.00000000
H 41.68148684 23.12355120 -8.02428228 7429 347 0 1.00000000 1.00000000 1.00000000
H 39.74075550 23.47783548 -9.35800537 7430 347 0 1.00000000 1.00000000 1.00000000
H 40.46640933 24.76732144 -10.40731309 7431 347 0 1.00000000 1.00000000 1.00000000
H 38.90913756 25.58070372 -8.65754243 7432 347 0 1.00000000 1.00000000 1.00000000
H 40.55588588 26.33437811 -8.52181365 7433 347 0 1.00000000 1.00000000 1.00000000
H 40.12120343 25.00699654 -7.32281283 7434 347 0 1.00000000 1.00000000 1.00000000
C 23.57161461 23.33010084 38.45911937 7435 348 0 0.56500000 0.56500000 0.56500000
C 24.32063599 22.58586603 37.42412359 7436 348 0 0.56500000 0.56500000 0.56500000
C 23.66955292 22.87121469 36.04593251 7437 348 0 0.56500000 0.56500000 0.56500000
C 24.39971959 22.32875955 34.82962151 7438 348 0 0.56500000 0.56500000 0.56500000
C 24.94417411 20.91219854 34.84208741 7439 348 0 0.56500000 0.56500000 0.56500000
C 25.56671525 20.29180663 33.58428701 7440 348 0 0.56500000 0.56500000 0.56500000
C 26.18600790 18.94741258 33.83363014 7441 348 0 0.56500000 0.56500000 0.56500000
H 22.50370470 23.50332712 38.25837265 7442 348 0 1.00000000 1.00000000 1.00000000
H 23.98410324 24.35591659 38.66739800 7443 348 0 1.00000000 1.00000000 1.00000000
H 23.60913530 22.79608718 39.39995036 7444 348 0 1.00000000 1.00000000 1.00000000
H 24.32538434 21.55080697 37.62942490 7445 348 0 1.00000000 1.00000000 1.00000000
H 25.39755635 22.89942490 37.42949274 7446 348 0 1.00000000 1.00000000 1.00000000
H 23.60605099 23.96672342 35.96162311 7447 348 0 1.00000000 1.00000000 1.00000000
H 22.67299024 22.36991387 36.01510325 7448 348 0 1.00000000 1.00000000 1.00000000
H 25.24415710 22.88986141 34.51237738 7449 348 0 1.00000000 1.00000000 1.00000000
H 23.72626222 22.47349746 34.00666480 7450 348 0 1.00000000 1.00000000 1.00000000
H 24.20943466 20.22409659 35.16359611 7451 348 0 1.00000000 1.00000000 1.00000000
H 25.73273676 20.89330068 35.59461562 7452 348 0 1.00000000 1.00000000 1.00000000
H 26.36771142 20.90977638 33.20203610 7453 348 0 1.00000000 1.00000000 1.00000000
H 24.80264036 20.11955468 32.76747324 7454 348 0 1.00000000 1.00000000 1.00000000
H 26.58691915 18.37261054 32.96314706 7455 348 0 1.00000000 1.00000000 1.00000000
H 25.54741883 18.22789347 34.34913725 7456 348 0 1.00000000 1.00000000 1.00000000
H 27.03155262 19.07835597 34.52633642 7457 348 0 1.00000000 1.00000000 1.00000000
C 13.03264854 37.46420978 31.22558035 7458 349 0 0.56500000 0.56500000 0.56500000
C 12.17127185 38.59820009 31.78432422 7459 349 0 0.56500000 0.56500000 0.56500000
C 12.80545176 39.93211234 31.39913942 7460 349 0 0.56500000 0.56500000 0.56500000
C 11.99310935 41.23134381 31.77332746 7461 349 0 0.56500000 0.56500000 0.56500000
C 12.58264363 42.50487369 31.14876358 7462 349 0 0.56500000 0.56500000 0.56500000
C 11.82477827 43.77096248 31.25296181 7463 349 0 0.56500000 0.56500000 0.56500000
C 12.71094653 45.00226308 30.95700379 7464 349 0 0.56500000 0.56500000 0.56500000
H 12.69765672 36.45116096 31.34133546 7465 349 0 1.00000000 1.00000000 1.00000000
H 13.99500318 37.51494340 31.77577762 7466 349 0 1.00000000 1.00000000 1.00000000
H 13.29454850 37.71062810 30.22943194 7467 349 0 1.00000000 1.00000000 1.00000000
H 12.10574119 38.43408622 32.83551375 7468 349 0 1.00000000 1.00000000 1.00000000
H 11.15069461 38.53510888 31.32465463 7469 349 0 1.00000000 1.00000000 1.00000000
H 13.09915064 39.91495067 30.33677210 7470 349 0 1.00000000 1.00000000 1.00000000
H 13.77775561 40.07810844 31.92415760 7471 349 0 1.00000000 1.00000000 1.00000000
H 12.20053093 41.32514985 32.82220304 7472 349 0 1.00000000 1.00000000 1.00000000
H 10.88670910 41.13081539 31.61680698 7473 349 0 1.00000000 1.00000000 1.00000000
H 12.93290589 42.43513472 30.07062331 7474 349 0 1.00000000 1.00000000 1.00000000
H 13.44397997 42.70160566 31.77020711 7475 349 0 1.00000000 1.00000000 1.00000000
H 11.37228305 43.90698290 32.27925287 7476 349 0 1.00000000 1.00000000 1.00000000
H 10.95309615 43.64794498 30.55960735 7477 349 0 1.00000000 1.00000000 1.00000000
H 13.10260977 44.99841302 29.95588770 7478 349 0 1.00000000 1.00000000 1.00000000
H 13.57324588 45.02976009 31.58303759 7479 349 0 1.00000000 1.00000000 1.00000000
H 12.19534365 45.92701708 30.89440925 7480 349 0 1.00000000 1.00000000 1.00000000
C 9.31906959 27.69188819 1.15875698 7481 350 0 0.56500000 0.56500000 0.56500000
C 10.47008545 26.86393649 0.69429266 7482 350 0 0.56500000 0.56500000 0.56500000
C 10.54176252 26.66854788 -0.84248861 7483 350 0 0.56500000 0.56500000 0.56500000
C 9.44566736 25.64824614 -1.45196537 7484 350 0 0.56500000 0.56500000 0.56500000
C 9.62894634 25.52621095 -2.96992021 7485 350 0 0.56500000 0.56500000 0.56500000
C 10.88108857 24.68559612 -3.38525401 7486 350 0 0.56500000 0.56500000 0.56500000
C 10.59151977 23.13097228 -3.15971330 7487 350 0 0.56500000 0.56500000 0.56500000
H 9.60645347 28.61707557 0.70717889 7488 350 0 1.00000000 1.00000000 1.00000000
H 9.27600935 27.89792474 2.25517447 7489 350 0 1.00000000 1.00000000 1.00000000
H 8.35830513 27.25618993 0.95485793 7490 350 0 1.00000000 1.00000000 1.00000000
H 10.48281582 25.84705822 1.22729496 7491 350 0 1.00000000 1.00000000 1.00000000
H 11.42051880 27.28170152 1.04732693 7492 350 0 1.00000000 1.00000000 1.00000000
H 11.58996433 26.38441134 -1.13264151 7493 350 0 1.00000000 1.00000000 1.00000000
H 10.36753071 27.65371577 -1.39025654 7494 350 0 1.00000000 1.00000000 1.00000000
H 8.40310021 25.97271299 -1.20220209 7495 350 0 1.00000000 1.00000000 1.00000000
H 9.70787882 24.68901398 -0.96748377 7496 350 0 1.00000000 1.00000000 1.00000000
H 9.77251897 26.52493794 -3.37096434 7497 350 0 1.00000000 1.00000000 1.00000000
H 8.80903746 25.11630031 -3.54757450 7498 350 0 1.00000000 1.00000000 1.00000000
H 11.73885045 24.95181825 -2.83041471 7499 350 0 1.00000000 1.00000000 1.00000000
H 11.09684677 24.79154314 -4.47833540 7500 350 0 1.00000000 1.00000000 1.00000000
H 10.04707059 22.97481884 -2.19457205 7501 350 0 1.00000000 1.00000000 1.00000000
H 11.48800275 22.51841816 -3.10776295 7502 350 0 1.00000000 1.00000000 1.00000000
H 9.85761965 22.73614092 -3.89135399 7503 350 0 1.00000000 1.00000000 1.00000000
C 6.20902156 25.81592307 23.08101833 7504 351 0 0.56500000 0.56500000 0.56500000
C 6.65403406 25.66046905 24.49874286 7505 351 0 0.56500000 0.56500000 0.56500000
C 7.39239720 24.33781250 24.71109668 7506 351 0 0.56500000 0.56500000 0.56500000
C 7.84668237 24.16621007 26.11168615 7507 351 0 0.56500000 0.56500000 0.56500000
C 9.24387488 24.73304085 26.53167114 7508 351 0 0.56500000 0.56500000 0.56500000
C 10.18828819 23.58449753 26.47298848 7509 351 0 0.56500000 0.56500000 0.56500000
C 11.64338650 24.02515360 26.73176798 7510 351 0 0.56500000 0.56500000 0.56500000
H 5.70620831 24.85658410 22.74253535 7511 351 0 1.00000000 1.00000000 1.00000000
H 7.01279491 25.71183309 22.37351429 7512 351 0 1.00000000 1.00000000 1.00000000
H 5.63745611 26.68738927 22.83550989 7513 351 0 1.00000000 1.00000000 1.00000000
H 5.81648507 25.82618587 25.19824724 7514 351 0 1.00000000 1.00000000 1.00000000
H 7.22345482 26.64206595 24.67890346 7515 351 0 1.00000000 1.00000000 1.00000000
H 8.19114588 24.12208699 23.90907394 7516 351 0 1.00000000 1.00000000 1.00000000
H 6.67152277 23.57730698 24.43071323 7517 351 0 1.00000000 1.00000000 1.00000000
H 7.86912137 23.08843342 26.24548352 7518 351 0 1.00000000 1.00000000 1.00000000
H 7.11268019 24.54106651 26.79480962 7519 351 0 1.00000000 1.00000000 1.00000000
H 9.23978210 25.08655583 27.59191980 7520 351 0 1.00000000 1.00000000 1.00000000
H 9.54544080 25.62485240 25.91912977 7521 351 0 1.00000000 1.00000000 1.00000000
H 10.06464995 23.04314253 25.53826931 7522 351 0 1.00000000 1.00000000 1.00000000
H 9.89559946 22.81759171 27.13758281 7523 351 0 1.00000000 1.00000000 1.00000000
H 12.36540033 23.15154354 26.80261260 7524 351 0 1.00000000 1.00000000 1.00000000
H 11.63807221 24.63287019 27.67026160 7525 351 0 1.00000000 1.00000000 1.00000000
H 12.02859236 24.63055475 25.95882619 7526 351 0 1.00000000 1.00000000 1.00000000
C 46.77779650 43.88385681 25.91663628 7527 352 0 0.56500000 0.56500000 0.56500000
C 46.57973273 43.52970872 27.38526083 7528 352 0 0.56500000 0.56500000 0.56500000
C 45.87274314 44.67839206 28.15665680 7529 352 0 0.56500000 0.56500000 0.56500000
C 45.80681597 44.33502204 29.62760362 7530 352 0 0.56500000 0.56500000 0.56500000
C 45.24243725 45.50909375 30.46698190 7531 352 0 0.56500000 0.56500000 0.56500000
C 45.03941741 45.08306153 31.95232866 7532 352 0 0.56500000 0.56500000 0.56500000
C 44.71534236 46.28282667 32.87434854 7533 352 0 0.56500000 0.56500000 0.56500000
H 47.23990353 44.84182674 25.75047728 7534 352 0 1.00000000 1.00000000 1.00000000
H 45.78432391 43.86783391 25.48049190 7535 352 0 1.00000000 1.00000000 1.00000000
H 47.43663008 43.17458637 25.39890166 7536 352 0 1.00000000 1.00000000 1.00000000
H 47.59438909 43.43647724 27.85689652 7537 352 0 1.00000000 1.00000000 1.00000000
H 46.10723344 42.55541385 27.46504908 7538 352 0 1.00000000 1.00000000 1.00000000
H 44.84485912 44.94527088 27.83773646 7539 352 0 1.00000000 1.00000000 1.00000000
H 46.47822849 45.57772889 27.88832248 7540 352 0 1.00000000 1.00000000 1.00000000
H 46.74130946 44.03479524 30.10866782 7541 352 0 1.00000000 1.00000000 1.00000000
H 45.18459090 43.48021783 29.80652093 7542 352 0 1.00000000 1.00000000 1.00000000
H 44.30155656 45.81282729 30.02720688 7543 352 0 1.00000000 1.00000000 1.00000000
H 45.94857755 46.41473990 30.45457715 7544 352 0 1.00000000 1.00000000 1.00000000
H 45.90937954 44.67097538 32.40178573 7545 352 0 1.00000000 1.00000000 1.00000000
H 44.24905461 44.25917894 31.99024901 7546 352 0 1.00000000 1.00000000 1.00000000
H 45.58419877 46.92323585 33.01692197 7547 352 0 1.00000000 1.00000000 1.00000000
H 44.41409935 45.80023572 33.82053598 7548 352 0 1.00000000 1.00000000 1.00000000
H 43.83550657 46.95784265 32.56983227 7549 352 0 1.00000000 1.00000000 1.00000000
C 32.91726731 20.57220630 6.96750855 7550 353 0 0.56500000 0.56500000 0.56500000
C 34.37319450 20.94468726 6.58493284 7551 353 0 0.56500000 0.56500000 0.56500000
C 34.73864401 20.41937133 5.22401454 7552 353 0 0.56500000 0.56500000 0.56500000
C 36.13008957 20.72176799 4.77863203 7553 353 0 0.56500000 0.56500000 0.56500000
C 36.61462979 20.19803058 3.46940212 7554 353 0 0.56500000 0.56500000 0.56500000
C 37.88878463 20.73871866 2.92903310 7555 353 0 0.56500000 0.56500000 0.56500000
C 37.76732703 22.22608613 2.63091164 7556 353 0 0.56500000 0.56500000 0.56500000
H 32.22553306 20.99899328 6.28498979 7557 353 0 1.00000000 1.00000000 1.00000000
H 32.61836321 20.88984269 7.92822674 7558 353 0 1.00000000 1.00000000 1.00000000
H 32.73450113 19.42644837 6.94981375 7559 353 0 1.00000000 1.00000000 1.00000000
H 35.08669840 20.61416046 7.37708375 7560 353 0 1.00000000 1.00000000 1.00000000
H 34.42675840 22.01195835 6.55397528 7561 353 0 1.00000000 1.00000000 1.00000000
H 33.97470566 20.69829138 4.48485693 7562 353 0 1.00000000 1.00000000 1.00000000
H 34.64712050 19.28052256 5.33618003 7563 353 0 1.00000000 1.00000000 1.00000000
H 36.85934906 20.45976995 5.55443461 7564 353 0 1.00000000 1.00000000 1.00000000
H 36.24860032 21.81056406 4.71331767 7565 353 0 1.00000000 1.00000000 1.00000000
H 35.85204768 20.47302799 2.68110472 7566 353 0 1.00000000 1.00000000 1.00000000
H 36.64219018 19.06629075 3.38546325 7567 353 0 1.00000000 1.00000000 1.00000000
H 38.12119058 20.21059808 1.99966519 7568 353 0 1.00000000 1.00000000 1.00000000
H 38.75904372 20.53030187 3.53512545 7569 353 0 1.00000000 1.00000000 1.00000000
H 38.75940310 22.55600392 2.17912459 7570 353 0 1.00000000 1.00000000 1.00000000
H 37.76336599 22.92994958 3.51111787 7571 353 0 1.00000000 1.00000000 1.00000000
H 36.95493706 22.42071217 1.91107919 7572 353 0 1.00000000 1.00000000 1.00000000
C 4.44243834 47.68840831 21.40346867 7573 354 0 0.56500000 0.56500000 0.56500000
C 5.52154742 46.68515711 20.86825826 7574 354 0 0.56500000 0.56500000 0.56500000
C 5.22978024 46.16602646 19.43121832 7575 354 0 0.56500000 0.56500000 0.56500000
C 6.37911100 45.33989868 18.85510794 7576 354 0 0.56500000 0.56500000 0.56500000
C 6.27305459 44.85079343 17.34613597 7577 354 0 0.56500000 0.56500000 0.56500000
C 4.96542060 44.22637411 17.04901198 7578 354 0 0.56500000 0.56500000 0.56500000
C 4.77448081 43.68878826 15.65468607 7579 354 0 0.56500000 0.56500000 0.56500000
H 4.78486211 48.07381952 22.41405544 7580 354 0 1.00000000 1.00000000 1.00000000
H 3.48963961 47.22769168 21.57291901 7581 354 0 1.00000000 1.00000000 1.00000000
H 4.28578350 48.57996292 20.71835742 7582 354 0 1.00000000 1.00000000 1.00000000
H 5.52614676 45.79107958 21.43106137 7583 354 0 1.00000000 1.00000000 1.00000000
H 6.52150355 47.28521696 20.90219440 7584 354 0 1.00000000 1.00000000 1.00000000
H 4.92567484 47.01922586 18.79058971 7585 354 0 1.00000000 1.00000000 1.00000000
H 4.34400511 45.49412282 19.62503734 7586 354 0 1.00000000 1.00000000 1.00000000
H 6.36864474 44.42494447 19.44288372 7587 354 0 1.00000000 1.00000000 1.00000000
H 7.37744110 45.71660833 19.12342330 7588 354 0 1.00000000 1.00000000 1.00000000
H 7.05749886 44.16282268 17.09311739 7589 354 0 1.00000000 1.00000000 1.00000000
H 6.39023195 45.79734693 16.79300342 7590 354 0 1.00000000 1.00000000 1.00000000
H 4.18657132 44.96075120 17.12652623 7591 354 0 1.00000000 1.00000000 1.00000000
H 4.77809483 43.43906582 17.76131619 7592 354 0 1.00000000 1.00000000 1.00000000
H 3.68991342 43.43576682 15.45532626 7593 354 0 1.00000000 1.00000000 1.00000000
H 5.31494450 42.87201142 15.24908277 7594 354 0 1.00000000 1.00000000 1.00000000
H 4.94835756 44.49853257 14.91355123 7595 354 0 1.00000000 1.00000000 1.00000000
C 43.63512457 45.66211535 17.53814032 7596 355 0 0.56500000 0.56500000 0.56500000
C 43.26935007 47.19997296 17.62880480 7597 355 0 0.56500000 0.56500000 0.56500000
C 42.22633044 47.49046303 18.72510365 7598 355 0 0.56500000 0.56500000 0.56500000
C 41.85453104 48.98465166 18.66887894 7599 355 0 0.56500000 0.56500000 0.56500000
C 40.77229078 49.50838590 19.65126807 7600 355 0 0.56500000 0.56500000 0.56500000
C 40.42509581 50.98542219 19.51088525 7601 355 0 0.56500000 0.56500000 0.56500000
C 39.36930735 51.37544120 20.51541379 7602 355 0 0.56500000 0.56500000 0.56500000
H 42.83918490 44.96145083 17.87706302 7603 355 0 1.00000000 1.00000000 1.00000000
H 44.49823996 45.59466254 18.20297507 7604 355 0 1.00000000 1.00000000 1.00000000
H 43.90852274 45.31147258 16.54929898 7605 355 0 1.00000000 1.00000000 1.00000000
H 42.87651369 47.56502913 16.74914550 7606 355 0 1.00000000 1.00000000 1.00000000
H 44.24034176 47.68726599 17.74951413 7607 355 0 1.00000000 1.00000000 1.00000000
H 42.47213986 47.17162931 19.76460646 7608 355 0 1.00000000 1.00000000 1.00000000
H 41.35575301 46.82583437 18.54671771 7609 355 0 1.00000000 1.00000000 1.00000000
H 41.55341898 49.24402977 17.63754408 7610 355 0 1.00000000 1.00000000 1.00000000
H 42.83497465 49.64711947 18.66145587 7611 355 0 1.00000000 1.00000000 1.00000000
H 41.18373932 49.29757472 20.67055071 7612 355 0 1.00000000 1.00000000 1.00000000
H 39.82892277 48.91452100 19.55926750 7613 355 0 1.00000000 1.00000000 1.00000000
H 40.29880834 51.16818520 18.43746578 7614 355 0 1.00000000 1.00000000 1.00000000
H 41.32484088 51.54892610 19.60444435 7615 355 0 1.00000000 1.00000000 1.00000000
H 39.52870814 50.92278371 21.49202243 7616 355 0 1.00000000 1.00000000 1.00000000
H 38.37305540 51.04878358 20.22471198 7617 355 0 1.00000000 1.00000000 1.00000000
H 39.28073594 52.42159230 20.77929642 7618 355 0 1.00000000 1.00000000 1.00000000
C 12.11003300 19.54763643 0.26509223 7619 356 0 0.56500000 0.56500000 0.56500000
C 12.29899375 21.03416945 -0.12280545 7620 356 0 0.56500000 0.56500000 0.56500000
C 13.65931698 21.41644446 -0.78391452 7621 356 0 0.56500000 0.56500000 0.56500000
C 13.88637966 22.91719533 -0.92323427 7622 356 0 0.56500000 0.56500000 0.56500000
C 15.06769627 23.28589775 -1.82902241 7623 356 0 0.56500000 0.56500000 0.56500000
C 15.67273415 24.58555884 -1.37763516 7624 356 0 0.56500000 0.56500000 0.56500000
C 14.89252519 25.86656144 -1.80551420 7625 356 0 0.56500000 0.56500000 0.56500000
H 12.68322121 19.31113864 1.20020067 7626 356 0 1.00000000 1.00000000 1.00000000
H 12.49020900 18.86812200 -0.49410553 7627 356 0 1.00000000 1.00000000 1.00000000
H 11.06357467 19.19570032 0.41170640 7628 356 0 1.00000000 1.00000000 1.00000000
H 12.17256115 21.67995601 0.75033672 7629 356 0 1.00000000 1.00000000 1.00000000
H 11.51028967 21.30634864 -0.80083516 7630 356 0 1.00000000 1.00000000 1.00000000
H 13.67447106 21.02192086 -1.79636318 7631 356 0 1.00000000 1.00000000 1.00000000
H 14.46614666 20.96426415 -0.16600966 7632 356 0 1.00000000 1.00000000 1.00000000
H 14.12992130 23.28303569 0.07475410 7633 356 0 1.00000000 1.00000000 1.00000000
H 13.00237370 23.44602734 -1.18359801 7634 356 0 1.00000000 1.00000000 1.00000000
H 14.70533481 23.46799414 -2.87817790 7635 356 0 1.00000000 1.00000000 1.00000000
H 15.81042445 22.46226943 -1.82214924 7636 356 0 1.00000000 1.00000000 1.00000000
H 16.61481108 24.70698831 -1.90549370 7637 356 0 1.00000000 1.00000000 1.00000000
H 15.87010080 24.56805667 -0.28859259 7638 356 0 1.00000000 1.00000000 1.00000000
H 13.93454543 26.00990808 -1.23290693 7639 356 0 1.00000000 1.00000000 1.00000000
H 14.58122537 25.76821753 -2.82803758 7640 356 0 1.00000000 1.00000000 1.00000000
H 15.41913076 26.81787031 -1.72711703 7641 356 0 1.00000000 1.00000000 1.00000000
C 2.07535475 18.30400948 16.58500122 7642 357 0 0.56500000 0.56500000 0.56500000
C 3.02846280 18.06261366 15.52053316 7643 357 0 0.56500000 0.56500000 0.56500000
C 4.38233247 18.56222138 15.96095345 7644 357 0 0.56500000 0.56500000 0.56500000
C 5.45551326 18.58632322 14.92999112 7645 357 0 0.56500000 0.56500000 0.56500000
C 6.80478200 19.15326845 15.30590302 7646 357 0 0.56500000 0.56500000 0.56500000
C 6.92049401 20.69969523 15.49678122 7647 357 0 0.56500000 0.56500000 0.56500000
C 8.35772806 21.11551534 15.60906796 7648 357 0 0.56500000 0.56500000 0.56500000
H 1.02202122 18.06704762 16.43326907 7649 357 0 1.00000000 1.00000000 1.00000000
H 2.09777090 19.31658114 16.96168871 7650 357 0 1.00000000 1.00000000 1.00000000
H 2.24787918 17.70040688 17.47932013 7651 357 0 1.00000000 1.00000000 1.00000000
H 2.72885782 18.57502378 14.60370380 7652 357 0 1.00000000 1.00000000 1.00000000
H 2.99609760 16.95655862 15.22812663 7653 357 0 1.00000000 1.00000000 1.00000000
H 4.77523671 17.93720715 16.75118242 7654 357 0 1.00000000 1.00000000 1.00000000
H 4.19782748 19.58553366 16.32018394 7655 357 0 1.00000000 1.00000000 1.00000000
H 5.14698178 19.24060915 14.00351730 7656 357 0 1.00000000 1.00000000 1.00000000
H 5.57964891 17.56705000 14.59170131 7657 357 0 1.00000000 1.00000000 1.00000000
H 7.48334194 18.89142602 14.51154494 7658 357 0 1.00000000 1.00000000 1.00000000
H 7.15035213 18.72665096 16.27208847 7659 357 0 1.00000000 1.00000000 1.00000000
H 6.37387231 20.92739615 16.44271773 7660 357 0 1.00000000 1.00000000 1.00000000
H 6.30248226 21.12544767 14.69510844 7661 357 0 1.00000000 1.00000000 1.00000000
H 8.86543437 21.20497347 14.67657431 7662 357 0 1.00000000 1.00000000 1.00000000
H 8.74710291 20.36189136 16.24974379 7663 357 0 1.00000000 1.00000000 1.00000000
H 8.49696135 22.02480553 16.03889166 7664 357 0 1.00000000 1.00000000 1.00000000
C 16.59485648 35.14327477 13.39577096 7665 358 0 0.56500000 0.56500000 0.56500000
C 15.71363032 34.53827649 14.50541812 7666 358 0 0.56500000 0.56500000 0.56500000
C 16.51929460 34.00956849 15.70658786 7667 358 0 0.56500000 0.56500000 0.56500000
C 15.53647754 33.30258959 16.68316269 7668 358 0 0.56500000 0.56500000 0.56500000
C 16.03797798 32.51932677 17.92239316 7669 358 0 0.56500000 0.56500000 0.56500000
C 14.84368959 31.79604197 18.63849122 7670 358 0 0.56500000 0.56500000 0.56500000
C 15.16908425 30.92076412 19.82409063 7671 358 0 0.56500000 0.56500000 0.56500000
H 17.42374319 34.41360440 13.14977595 7672 358 0 1.00000000 1.00000000 1.00000000
H 16.98332791 36.16197572 13.79009020 7673 358 0 1.00000000 1.00000000 1.00000000
H 16.03243127 35.35306451 12.50306365 7674 358 0 1.00000000 1.00000000 1.00000000
H 15.18068806 33.75080512 14.06316726 7675 358 0 1.00000000 1.00000000 1.00000000
H 14.99205048 35.29731848 14.86646122 7676 358 0 1.00000000 1.00000000 1.00000000
H 16.97699683 34.80982795 16.24474066 7677 358 0 1.00000000 1.00000000 1.00000000
H 17.24597430 33.25495142 15.43188106 7678 358 0 1.00000000 1.00000000 1.00000000
H 14.95831607 32.56210048 16.12247881 7679 358 0 1.00000000 1.00000000 1.00000000
H 14.81624982 34.00504458 16.93224841 7680 358 0 1.00000000 1.00000000 1.00000000
H 16.56934496 33.13987473 18.64050669 7681 358 0 1.00000000 1.00000000 1.00000000
H 16.68862688 31.71762436 17.60138981 7682 358 0 1.00000000 1.00000000 1.00000000
H 14.41527881 31.08645598 17.87485125 7683 358 0 1.00000000 1.00000000 1.00000000
H 14.19325038 32.64307762 18.84095220 7684 358 0 1.00000000 1.00000000 1.00000000
H 15.43998228 31.36176567 20.72024767 7685 358 0 1.00000000 1.00000000 1.00000000
H 15.96161337 30.16838757 19.62967521 7686 358 0 1.00000000 1.00000000 1.00000000
H 14.30775986 30.24210962 19.95031654 7687 358 0 1.00000000 1.00000000 1.00000000
C 12.14530386 45.47583370 4.98083222 7688 359 0 0.56500000 0.56500000 0.56500000
C 12.55327679 44.68397754 3.74035458 7689 359 0 0.56500000 0.56500000 0.56500000
C 13.82919696 43.94884990 3.99149018 7690 359 0 0.56500000 0.56500000 0.56500000
C 13.72010921 42.72798473 4.91507199 7691 359 0 0.56500000 0.56500000 0.56500000
C 12.79974931 41.54815876 4.49278861 7692 359 0 0.56500000 0.56500000 0.56500000
C 12.78624327 40.40856054 5.46928104 7693 359 0 0.56500000 0.56500000 0.56500000
C 12.03185366 40.81525030 6.72220081 7694 359 0 0.56500000 0.56500000 0.56500000
H 11.24841854 46.19179628 4.92282922 7695 359 0 1.00000000 1.00000000 1.00000000
H 12.97451821 46.07983108 5.36115726 7696 359 0 1.00000000 1.00000000 1.00000000
H 11.98534803 44.86136272 5.84097247 7697 359 0 1.00000000 1.00000000 1.00000000
H 12.62496152 45.32437680 2.82480579 7698 359 0 1.00000000 1.00000000 1.00000000
H 11.71180158 43.97871920 3.50177196 7699 359 0 1.00000000 1.00000000 1.00000000
H 14.36314601 44.63325747 4.57122521 7700 359 0 1.00000000 1.00000000 1.00000000
H 14.44885960 43.72812215 3.15618037 7701 359 0 1.00000000 1.00000000 1.00000000
H 13.34641933 43.02052293 5.86730902 7702 359 0 1.00000000 1.00000000 1.00000000
H 14.77168099 42.30736626 5.16078352 7703 359 0 1.00000000 1.00000000 1.00000000
H 13.17176584 40.96624221 3.49352103 7704 359 0 1.00000000 1.00000000 1.00000000
H 11.82821420 41.91890915 4.27063920 7705 359 0 1.00000000 1.00000000 1.00000000
H 13.82604055 40.22308653 5.74028046 7706 359 0 1.00000000 1.00000000 1.00000000
H 12.26856857 39.54602844 5.09013355 7707 359 0 1.00000000 1.00000000 1.00000000
H 12.13240737 40.02882630 7.43011258 7708 359 0 1.00000000 1.00000000 1.00000000
H 10.98564836 41.13897216 6.62490157 7709 359 0 1.00000000 1.00000000 1.00000000
H 12.51571717 41.67667328 7.14769543 7710 359 0 1.00000000 1.00000000 1.00000000
C 10.68788861 10.70262731 41.42867565 7711 360 0 0.56500000 0.56500000 0.56500000
C 10.59110590 11.77799517 42.59086570 7712 360 0 0.56500000 0.56500000 0.56500000
C 11.82838309 11.75811689 43.44672613 7713 360 0 0.56500000 0.56500000 0.56500000
C 11.81195606 12.77646527 44.61516316 7714 360 0 0.56500000 0.56500000 0.56500000
C 13.21772068 12.68127775 45.28538877 7715 360 0 0.56500000 0.56500000 0.56500000
C 13.34488948 11.52315150 46.22604706 7716 360 0 0.56500000 0.56500000 0.56500000
C 14.73413073 11.33781922 46.67206170 7717 360 0 0.56500000 0.56500000 0.56500000
H 10.61864916 9.62797044 41.82011115 7718 360 0 1.00000000 1.00000000 1.00000000
H 11.62532883 10.79551832 40.88952076 7719 360 0 1.00000000 1.00000000 1.00000000
H 9.79631099 10.75908268 40.71807607 7720 360 0 1.00000000 1.00000000 1.00000000
H 9.69422625 11.46248326 43.15739185 7721 360 0 1.00000000 1.00000000 1.00000000
H 10.46141153 12.79166815 42.12853885 7722 360 0 1.00000000 1.00000000 1.00000000
H 12.79801838 11.87454171 42.94821446 7723 360 0 1.00000000 1.00000000 1.00000000
H 11.86755962 10.77162062 43.87917457 7724 360 0 1.00000000 1.00000000 1.00000000
H 10.97569457 12.46598362 45.34304804 7725 360 0 1.00000000 1.00000000 1.00000000
H 11.50661163 13.73822886 44.16733987 7726 360 0 1.00000000 1.00000000 1.00000000
H 13.32862401 13.55299437 45.88935938 7727 360 0 1.00000000 1.00000000 1.00000000
H 13.96708897 12.69359068 44.51765842 7728 360 0 1.00000000 1.00000000 1.00000000
H 12.99214526 10.59103476 45.79447726 7729 360 0 1.00000000 1.00000000 1.00000000
H 12.65010834 11.69814480 47.01544855 7730 360 0 1.00000000 1.00000000 1.00000000
H 14.88264658 10.65883231 47.52426898 7731 360 0 1.00000000 1.00000000 1.00000000
H 15.24501507 12.24323282 46.92689469 7732 360 0 1.00000000 1.00000000 1.00000000
H 15.38468027 10.94721562 45.91484921 7733 360 0 1.00000000 1.00000000 1.00000000
C 2.50799031 41.00610906 8.55435496 7734 361 0 0.56500000 0.56500000 0.56500000
C 2.70858061 40.32605725 7.23515115 7735 361 0 0.56500000 0.56500000 0.56500000
C 1.79404501 40.80683081 6.09401341 7736 361 0 0.56500000 0.56500000 0.56500000
C 1.40870449 39.69104457 5.10879424 7737 361 0 0.56500000 0.56500000 0.56500000
C 0.46796122 39.90009088 3.98260819 7738 361 0 0.56500000 0.56500000 0.56500000
C -0.00911052 38.50584134 3.35006072 7739 361 0 0.56500000 0.56500000 0.56500000
C -0.73136621 37.54400937 4.27917056 7740 361 0 0.56500000 0.56500000 0.56500000
H 3.13173953 40.58413745 9.32338082 7741 361 0 1.00000000 1.00000000 1.00000000
H 1.42336495 40.97535044 8.80558952 7742 361 0 1.00000000 1.00000000 1.00000000
H 2.68116434 42.09370905 8.49959481 7743 361 0 1.00000000 1.00000000 1.00000000
H 2.53082173 39.31222937 7.33801943 7744 361 0 1.00000000 1.00000000 1.00000000
H 3.68792308 40.36927541 6.88518158 7745 361 0 1.00000000 1.00000000 1.00000000
H 2.43371458 41.58947273 5.65239020 7746 361 0 1.00000000 1.00000000 1.00000000
H 0.91602591 41.32619193 6.45904303 7747 361 0 1.00000000 1.00000000 1.00000000
H 0.91251856 38.93121767 5.72649489 7748 361 0 1.00000000 1.00000000 1.00000000
H 2.28818068 39.19896903 4.65315218 7749 361 0 1.00000000 1.00000000 1.00000000
H 0.90211264 40.36129346 3.14187459 7750 361 0 1.00000000 1.00000000 1.00000000
H -0.44716070 40.33016963 4.33681054 7751 361 0 1.00000000 1.00000000 1.00000000
H 0.90095105 37.97413003 2.97732971 7752 361 0 1.00000000 1.00000000 1.00000000
H -0.67333761 38.73388144 2.48471375 7753 361 0 1.00000000 1.00000000 1.00000000
H -0.27234297 37.39349526 5.31380931 7754 361 0 1.00000000 1.00000000 1.00000000
H -0.84544220 36.59338484 3.76269694 7755 361 0 1.00000000 1.00000000 1.00000000
H -1.69968557 38.03405127 4.60760028 7756 361 0 1.00000000 1.00000000 1.00000000
C 16.88731851 4.15721499 -0.56846428 7757 362 0 0.56500000 0.56500000 0.56500000
C 18.24231719 4.79294756 -0.18406891 7758 362 0 0.56500000 0.56500000 0.56500000
C 18.00289697 5.66791185 1.14663783 7759 362 0 0.56500000 0.56500000 0.56500000
C 19.05112717 6.85741948 1.28555321 7760 362 0 0.56500000 0.56500000 0.56500000
C 18.65082504 7.75406074 2.45129743 7761 362 0 0.56500000 0.56500000 0.56500000
C 19.11065194 7.22396100 3.79188643 7762 362 0 0.56500000 0.56500000 0.56500000
C 18.39245495 7.89038621 4.97818360 7763 362 0 0.56500000 0.56500000 0.56500000
H 16.94965047 3.41175168 -1.39211905 7764 362 0 1.00000000 1.00000000 1.00000000
H 16.17351121 4.98712982 -0.90432087 7765 362 0 1.00000000 1.00000000 1.00000000
H 16.50218087 3.58421764 0.27749575 7766 362 0 1.00000000 1.00000000 1.00000000
H 18.44125573 5.46822553 -0.99995192 7767 362 0 1.00000000 1.00000000 1.00000000
H 19.08490575 4.11689173 -0.14161622 7768 362 0 1.00000000 1.00000000 1.00000000
H 18.00208845 5.03192518 2.05656918 7769 362 0 1.00000000 1.00000000 1.00000000
H 16.99554830 6.10967890 0.98072114 7770 362 0 1.00000000 1.00000000 1.00000000
H 19.07401750 7.35726922 0.31853220 7771 362 0 1.00000000 1.00000000 1.00000000
H 20.01471086 6.41348371 1.36314290 7772 362 0 1.00000000 1.00000000 1.00000000
H 17.56619894 7.84363691 2.40947435 7773 362 0 1.00000000 1.00000000 1.00000000
H 19.02480631 8.77350752 2.44814899 7774 362 0 1.00000000 1.00000000 1.00000000
H 20.24048691 7.27798858 3.97071237 7775 362 0 1.00000000 1.00000000 1.00000000
H 18.90314242 6.14071796 3.78878625 7776 362 0 1.00000000 1.00000000 1.00000000
H 18.52636342 9.01740923 4.97510209 7777 362 0 1.00000000 1.00000000 1.00000000
H 18.79030510 7.48296758 5.92776995 7778 362 0 1.00000000 1.00000000 1.00000000
H 17.34789246 7.63771856 4.97229256 7779 362 0 1.00000000 1.00000000 1.00000000
C 3.69481392 35.82212310 21.17435869 7780 363 0 0.56500000 0.56500000 0.56500000
C 2.27646302 35.16432941 21.43108766 7781 363 0 0.56500000 0.56500000 0.56500000
C 1.62113763 35.39856744 22.77910230 7782 363 0 0.56500000 0.56500000 0.56500000
C 1.23947816 36.84315273 23.12618477 7783 363 0 0.56500000 0.56500000 0.56500000
C 1.51109116 37.04659248 24.66959389 7784 363 0 0.56500000 0.56500000 0.56500000
C 1.13384936 38.40286071 25.25015023 7785 363 0 0.56500000 0.56500000 0.56500000
C 1.15698520 38.28352734 26.78921981 7786 363 0 0.56500000 0.56500000 0.56500000
H 3.96651922 35.71441257 20.11685869 7787 363 0 1.00000000 1.00000000 1.00000000
H 4.56565894 35.43326423 21.79297780 7788 363 0 1.00000000 1.00000000 1.00000000
H 3.55878175 36.92375160 21.40623346 7789 363 0 1.00000000 1.00000000 1.00000000
H 2.41872723 34.09576349 21.41483066 7790 363 0 1.00000000 1.00000000 1.00000000
H 1.60480085 35.44591902 20.60204712 7791 363 0 1.00000000 1.00000000 1.00000000
H 2.34560123 35.11676934 23.59308054 7792 363 0 1.00000000 1.00000000 1.00000000
H 0.78816598 34.64726314 23.00797190 7793 363 0 1.00000000 1.00000000 1.00000000
H 0.19104056 37.07088301 22.88680502 7794 363 0 1.00000000 1.00000000 1.00000000
H 1.85250940 37.47030769 22.45562400 7795 363 0 1.00000000 1.00000000 1.00000000
H 2.56414145 36.79976591 24.82092930 7796 363 0 1.00000000 1.00000000 1.00000000
H 0.90775994 36.27643012 25.21090235 7797 363 0 1.00000000 1.00000000 1.00000000
H 0.13911174 38.68710142 24.90174273 7798 363 0 1.00000000 1.00000000 1.00000000
H 1.88091949 39.14206110 24.98002752 7799 363 0 1.00000000 1.00000000 1.00000000
H 0.51463595 37.32761795 26.97808930 7800 363 0 1.00000000 1.00000000 1.00000000
H 0.70538528 39.09998888 27.29481440 7801 363 0 1.00000000 1.00000000 1.00000000
H 2.16096937 38.03399385 27.24379762 7802 363 0 1.00000000 1.00000000 1.00000000
C 26.26101883 46.34787673 28.81393537 7803 364 0 0.56500000 0.56500000 0.56500000
C 26.40041723 44.87635747 29.23119235 7804 364 0 0.56500000 0.56500000 0.56500000
C 25.05416986 44.31255008 29.74293158 7805 364 0 0.56500000 0.56500000 0.56500000
C 24.26612424 44.99417627 30.87612560 7806 364 0 0.56500000 0.56500000 0.56500000
C 23.33176128 44.10929182 31.58337929 7807 364 0 0.56500000 0.56500000 0.56500000
C 22.17940978 43.64980326 30.58437801 7808 364 0 0.56500000 0.56500000 0.56500000
C 21.05013139 42.89552471 31.26237009 7809 364 0 0.56500000 0.56500000 0.56500000
H 26.01380556 46.88829086 29.73570273 7810 364 0 1.00000000 1.00000000 1.00000000
H 25.53554122 46.48868190 28.05553985 7811 364 0 1.00000000 1.00000000 1.00000000
H 27.24590448 46.69234488 28.43711027 7812 364 0 1.00000000 1.00000000 1.00000000
H 27.15833121 44.71845938 30.05281711 7813 364 0 1.00000000 1.00000000 1.00000000
H 26.77267100 44.27420247 28.40993365 7814 364 0 1.00000000 1.00000000 1.00000000
H 25.26546899 43.35262305 30.01195382 7815 364 0 1.00000000 1.00000000 1.00000000
H 24.38262298 44.15580213 28.92182319 7816 364 0 1.00000000 1.00000000 1.00000000
H 23.72388922 45.71198741 30.30136194 7817 364 0 1.00000000 1.00000000 1.00000000
H 25.00098197 45.52332694 31.47759786 7818 364 0 1.00000000 1.00000000 1.00000000
H 22.76438799 44.68561516 32.31289274 7819 364 0 1.00000000 1.00000000 1.00000000
H 23.88555075 43.26025804 32.05569736 7820 364 0 1.00000000 1.00000000 1.00000000
H 22.61069925 43.12107271 29.72848728 7821 364 0 1.00000000 1.00000000 1.00000000
H 21.78072233 44.59764769 30.13520778 7822 364 0 1.00000000 1.00000000 1.00000000
H 20.41063583 42.62888792 30.44647268 7823 364 0 1.00000000 1.00000000 1.00000000
H 20.48183349 43.41914573 31.97491012 7824 364 0 1.00000000 1.00000000 1.00000000
H 21.53774383 42.04939114 31.82103805 7825 364 0 1.00000000 1.00000000 1.00000000
C -6.58166330 50.11676003 0.48421741 7826 365 0 0.56500000 0.56500000 0.56500000
C -5.96578030 48.89248491 1.18151035 7827 365 0 0.56500000 0.56500000 0.56500000
C -6.17331820 47.58060456 0.45508757 7828 365 0 0.56500000 0.56500000 0.56500000
C -5.75934604 46.27675162 1.10529868 7829 365 0 0.56500000 0.56500000 0.56500000
C -5.83234293 44.99230764 0.29820181 7830 365 0 0.56500000 0.56500000 0.56500000
C -5.69350287 43.74110809 1.23898528 7831 365 0 0.56500000 0.56500000 0.56500000
C -5.49957240 42.49263579 0.45206387 7832 365 0 0.56500000 0.56500000 0.56500000
H -6.40354153 50.18678790 -0.61790029 7833 365 0 1.00000000 1.00000000 1.00000000
H -6.29000541 51.11112583 0.90525705 7834 365 0 1.00000000 1.00000000 1.00000000
H -7.67405966 50.02944303 0.50658880 7835 365 0 1.00000000 1.00000000 1.00000000
H -6.39642605 48.77583574 2.20412039 7836 365 0 1.00000000 1.00000000 1.00000000
H -4.88040979 49.03087562 1.35916062 7837 365 0 1.00000000 1.00000000 1.00000000
H -5.71970896 47.48780960 -0.50060603 7838 365 0 1.00000000 1.00000000 1.00000000
H -7.27552885 47.49053138 0.15439222 7839 365 0 1.00000000 1.00000000 1.00000000
H -6.35337924 46.01573904 1.99367386 7840 365 0 1.00000000 1.00000000 1.00000000
H -4.75054241 46.38091818 1.50055474 7841 365 0 1.00000000 1.00000000 1.00000000
H -5.02229255 45.00081870 -0.46633106 7842 365 0 1.00000000 1.00000000 1.00000000
H -6.75986569 45.09547086 -0.32904679 7843 365 0 1.00000000 1.00000000 1.00000000
H -6.57888076 43.73114430 1.90573572 7844 365 0 1.00000000 1.00000000 1.00000000
H -4.77700601 43.85592498 1.83890279 7845 365 0 1.00000000 1.00000000 1.00000000
H -4.78469160 42.56712666 -0.39939603 7846 365 0 1.00000000 1.00000000 1.00000000
H -6.49812667 42.21554976 0.07716919 7847 365 0 1.00000000 1.00000000 1.00000000
H -5.17821506 41.73649725 1.18962445 7848 365 0 1.00000000 1.00000000 1.00000000
C 41.99501789 51.32028281 0.27036913 7849 366 0 0.56500000 0.56500000 0.56500000
C 43.14676278 51.26337762 1.24515526 7850 366 0 0.56500000 0.56500000 0.56500000
C 42.67100062 51.05156031 2.67409934 7851 366 0 0.56500000 0.56500000 0.56500000
C 42.40845484 49.57725823 2.92873576 7852 366 0 0.56500000 0.56500000 0.56500000
C 41.87583759 49.32636915 4.35812776 7853 366 0 0.56500000 0.56500000 0.56500000
C 41.26781057 47.91644909 4.58753956 7854 366 0 0.56500000 0.56500000 0.56500000
C 42.03877675 46.78040472 4.01154591 7855 366 0 0.56500000 0.56500000 0.56500000
H 41.20848403 51.97438302 0.62775608 7856 366 0 1.00000000 1.00000000 1.00000000
H 41.41943856 50.38815062 -0.07647960 7857 366 0 1.00000000 1.00000000 1.00000000
H 42.27517163 51.69708791 -0.70102007 7858 366 0 1.00000000 1.00000000 1.00000000
H 43.47132118 52.31513873 1.10868070 7859 366 0 1.00000000 1.00000000 1.00000000
H 43.92119295 50.55526816 1.05505629 7860 366 0 1.00000000 1.00000000 1.00000000
H 41.81577637 51.68285960 2.87152479 7861 366 0 1.00000000 1.00000000 1.00000000
H 43.42772788 51.45649640 3.33107902 7862 366 0 1.00000000 1.00000000 1.00000000
H 43.23529794 48.85662245 2.88290067 7863 366 0 1.00000000 1.00000000 1.00000000
H 41.62031721 49.17842207 2.32774725 7864 366 0 1.00000000 1.00000000 1.00000000
H 41.14083274 50.08990546 4.67350082 7865 366 0 1.00000000 1.00000000 1.00000000
H 42.72030421 49.51705356 5.11314210 7866 366 0 1.00000000 1.00000000 1.00000000
H 40.23103956 47.92283963 4.20830794 7867 366 0 1.00000000 1.00000000 1.00000000
H 41.08952416 47.76689735 5.67937016 7868 366 0 1.00000000 1.00000000 1.00000000
H 41.63944358 45.82469788 4.31774295 7869 366 0 1.00000000 1.00000000 1.00000000
H 43.08748770 46.83651513 4.27175596 7870 366 0 1.00000000 1.00000000 1.00000000
H 41.86233467 46.86937029 2.95730653 7871 366 0 1.00000000 1.00000000 1.00000000
C 27.76952883 50.48857435 37.51636096 7872 367 0 0.56500000 0.56500000 0.56500000
C 26.56094256 49.49970282 37.77360329 7873 367 0 0.56500000 0.56500000 0.56500000
C 25.32945527 49.92379205 37.00082048 7874 367 0 0.56500000 0.56500000 0.56500000
C 24.14936877 48.99802276 37.12123338 7875 367 0 0.56500000 0.56500000 0.56500000
C 22.82110582 49.39259730 36.48283677 7876 367 0 0.56500000 0.56500000 0.56500000
C 22.01924715 48.09099069 36.36598739 7877 367 0 0.56500000 0.56500000 0.56500000
C 20.69439926 48.31157541 35.62409706 7878 367 0 0.56500000 0.56500000 0.56500000
H 27.39961157 51.54737268 37.32727620 7879 367 0 1.00000000 1.00000000 1.00000000
H 28.26936525 50.05769854 36.63004835 7880 367 0 1.00000000 1.00000000 1.00000000
H 28.46741737 50.53191062 38.32281101 7881 367 0 1.00000000 1.00000000 1.00000000
H 26.32201223 49.35530017 38.81171871 7882 367 0 1.00000000 1.00000000 1.00000000
H 26.85622663 48.56202882 37.37630769 7883 367 0 1.00000000 1.00000000 1.00000000
H 25.70772009 50.01032578 35.94021816 7884 367 0 1.00000000 1.00000000 1.00000000
H 25.25516062 50.94205322 37.28811586 7885 367 0 1.00000000 1.00000000 1.00000000
H 23.93315739 48.70003260 38.16919520 7886 367 0 1.00000000 1.00000000 1.00000000
H 24.38146665 48.02324668 36.65162039 7887 367 0 1.00000000 1.00000000 1.00000000
H 22.97048800 49.84383504 35.50799734 7888 367 0 1.00000000 1.00000000 1.00000000
H 22.24668381 50.21971755 37.01027751 7889 367 0 1.00000000 1.00000000 1.00000000
H 21.72534547 47.67010301 37.30643909 7890 367 0 1.00000000 1.00000000 1.00000000
H 22.53208229 47.29200322 35.83920693 7891 367 0 1.00000000 1.00000000 1.00000000
H 20.06804398 49.16158513 36.00478864 7892 367 0 1.00000000 1.00000000 1.00000000
H 20.09540303 47.39995789 35.54435577 7893 367 0 1.00000000 1.00000000 1.00000000
H 20.90663398 48.38517966 34.58655407 7894 367 0 1.00000000 1.00000000 1.00000000
C 28.19518913 21.56564422 42.51534861 7895 368 0 0.56500000 0.56500000 0.56500000
C 26.99247981 20.67824623 42.17487820 7896 368 0 0.56500000 0.56500000 0.56500000
C 27.17906072 19.91223306 40.80242000 7897 368 0 0.56500000 0.56500000 0.56500000
C 26.11581099 18.96644719 40.39420079 7898 368 0 0.56500000 0.56500000 0.56500000
C 26.08138224 18.63266045 38.90852674 7899 368 0 0.56500000 0.56500000 0.56500000
C 27.19707898 17.68897090 38.50155863 7900 368 0 0.56500000 0.56500000 0.56500000
C 27.08822108 17.24683213 37.05166380 7901 368 0 0.56500000 0.56500000 0.56500000
H 28.02872380 22.10201645 43.48545689 7902 368 0 1.00000000 1.00000000 1.00000000
H 28.43349700 22.28245545 41.67211991 7903 368 0 1.00000000 1.00000000 1.00000000
H 29.04550151 20.93508508 42.52683053 7904 368 0 1.00000000 1.00000000 1.00000000
H 26.00791135 21.26739269 42.02000058 7905 368 0 1.00000000 1.00000000 1.00000000
H 26.87268889 20.02335228 42.97428833 7906 368 0 1.00000000 1.00000000 1.00000000
H 28.17245449 19.35464483 40.78998030 7907 368 0 1.00000000 1.00000000 1.00000000
H 27.24402420 20.72163032 40.05103779 7908 368 0 1.00000000 1.00000000 1.00000000
H 25.15334618 19.34822737 40.78841781 7909 368 0 1.00000000 1.00000000 1.00000000
H 26.20386958 17.97928875 40.89827789 7910 368 0 1.00000000 1.00000000 1.00000000
H 26.06873273 19.56346082 38.34772848 7911 368 0 1.00000000 1.00000000 1.00000000
H 25.11827074 18.17928633 38.68058327 7912 368 0 1.00000000 1.00000000 1.00000000
H 27.16021934 16.83677414 39.15560613 7913 368 0 1.00000000 1.00000000 1.00000000
H 28.15238024 18.15144937 38.54840358 7914 368 0 1.00000000 1.00000000 1.00000000
H 28.07295021 16.75249348 36.81821973 7915 368 0 1.00000000 1.00000000 1.00000000
H 26.96662133 18.09321661 36.38600705 7916 368 0 1.00000000 1.00000000 1.00000000
H 26.26743062 16.51888261 36.94937874 7917 368 0 1.00000000 1.00000000 1.00000000
C 14.11093729 37.40681741 2.49407505 7918 369 0 0.56500000 0.56500000 0.56500000
C 15.56005544 37.91746892 2.27039211 7919 369 0 0.56500000 0.56500000 0.56500000
C 16.34621707 37.93567054 3.63616463 7920 369 0 0.56500000 0.56500000 0.56500000
C 17.20108928 36.77720718 3.94083863 7921 369 0 0.56500000 0.56500000 0.56500000
C 17.75521018 36.76741496 5.34354809 7922 369 0 0.56500000 0.56500000 0.56500000
C 18.68250831 35.58401972 5.59190928 7923 369 0 0.56500000 0.56500000 0.56500000
C 19.34443260 35.66591073 6.97363863 7924 369 0 0.56500000 0.56500000 0.56500000
H 13.69249670 37.09408479 1.49325885 7925 369 0 1.00000000 1.00000000 1.00000000
H 13.42104959 38.22763390 2.80435642 7926 369 0 1.00000000 1.00000000 1.00000000
H 14.10904075 36.57588369 3.25757865 7927 369 0 1.00000000 1.00000000 1.00000000
H 15.48547860 38.92892137 1.91008406 7928 369 0 1.00000000 1.00000000 1.00000000
H 16.04597541 37.26395860 1.55745715 7929 369 0 1.00000000 1.00000000 1.00000000
H 15.60834063 37.96974708 4.48626842 7930 369 0 1.00000000 1.00000000 1.00000000
H 16.82299673 38.95052356 3.76596051 7931 369 0 1.00000000 1.00000000 1.00000000
H 18.07515413 36.74057550 3.26031299 7932 369 0 1.00000000 1.00000000 1.00000000
H 16.63634716 35.85024001 3.67753523 7933 369 0 1.00000000 1.00000000 1.00000000
H 16.90838276 36.70291624 6.02846124 7934 369 0 1.00000000 1.00000000 1.00000000
H 18.15628959 37.72949615 5.65563755 7935 369 0 1.00000000 1.00000000 1.00000000
H 19.37724180 35.60912996 4.74040294 7936 369 0 1.00000000 1.00000000 1.00000000
H 18.02494291 34.76616198 5.45323272 7937 369 0 1.00000000 1.00000000 1.00000000
H 19.73478149 36.65746390 7.26126222 7938 369 0 1.00000000 1.00000000 1.00000000
H 20.11114303 34.89676080 7.12991145 7939 369 0 1.00000000 1.00000000 1.00000000
H 18.60605682 35.45302792 7.74661580 7940 369 0 1.00000000 1.00000000 1.00000000
C 29.76923745 47.24392745 0.70211439 7941 370 0 0.56500000 0.56500000 0.56500000
C 30.82182649 48.00950301 1.53699618 7942 370 0 0.56500000 0.56500000 0.56500000
C 31.94474242 47.19948351 2.17148281 7943 370 0 0.56500000 0.56500000 0.56500000
C 32.66565746 48.04987996 3.24878476 7944 370 0 0.56500000 0.56500000 0.56500000
C 33.81173318 47.44279524 4.13119132 7945 370 0 0.56500000 0.56500000 0.56500000
C 34.99115292 46.93738100 3.34476110 7946 370 0 0.56500000 0.56500000 0.56500000
C 36.09299820 46.38747529 4.19870691 7947 370 0 0.56500000 0.56500000 0.56500000
H 29.15557935 47.83199895 0.07569863 7948 370 0 1.00000000 1.00000000 1.00000000
H 29.08137302 46.57773861 1.35829753 7949 370 0 1.00000000 1.00000000 1.00000000
H 30.15517413 46.44298656 0.05749401 7950 370 0 1.00000000 1.00000000 1.00000000
H 30.31164733 48.49055394 2.33526148 7951 370 0 1.00000000 1.00000000 1.00000000
H 31.24182018 48.90033494 1.08388034 7952 370 0 1.00000000 1.00000000 1.00000000
H 32.62770028 46.90737651 1.36009167 7953 370 0 1.00000000 1.00000000 1.00000000
H 31.65092580 46.20252976 2.45755940 7954 370 0 1.00000000 1.00000000 1.00000000
H 31.92201196 48.54827755 3.91533327 7955 370 0 1.00000000 1.00000000 1.00000000
H 33.19871684 48.87877729 2.75524112 7956 370 0 1.00000000 1.00000000 1.00000000
H 33.44162607 46.55770807 4.67682426 7957 370 0 1.00000000 1.00000000 1.00000000
H 34.13649975 48.23793906 4.78370689 7958 370 0 1.00000000 1.00000000 1.00000000
H 35.39774751 47.84427864 2.81896946 7959 370 0 1.00000000 1.00000000 1.00000000
H 34.76307289 46.19235174 2.59091317 7960 370 0 1.00000000 1.00000000 1.00000000
H 36.69616525 47.06986949 4.80085627 7961 370 0 1.00000000 1.00000000 1.00000000
H 36.86920620 45.90881370 3.58983369 7962 370 0 1.00000000 1.00000000 1.00000000
H 35.62441890 45.58024205 4.82481219 7963 370 0 1.00000000 1.00000000 1.00000000
C 10.85814982 10.57802859 3.61040678 7964 371 0 0.56500000 0.56500000 0.56500000
C 10.27291387 11.08331050 2.22825175 7965 371 0 0.56500000 0.56500000 0.56500000
C 11.23056237 11.80240796 1.29799523 7966 371 0 0.56500000 0.56500000 0.56500000
C 11.66663777 13.14531998 1.84436355 7967 371 0 0.56500000 0.56500000 0.56500000
C 12.75837877 13.68138939 0.97021590 7968 371 0 0.56500000 0.56500000 0.56500000
C 13.40673509 14.96234215 1.46626273 7969 371 0 0.56500000 0.56500000 0.56500000
C 12.48628419 16.17890271 1.63438541 7970 371 0 0.56500000 0.56500000 0.56500000
H 10.55171842 11.18639924 4.47264558 7971 371 0 1.00000000 1.00000000 1.00000000
H 11.98136501 10.61978284 3.74558425 7972 371 0 1.00000000 1.00000000 1.00000000
H 10.51881539 9.58456545 3.94228819 7973 371 0 1.00000000 1.00000000 1.00000000
H 9.43332851 11.70945301 2.48819758 7974 371 0 1.00000000 1.00000000 1.00000000
H 9.70920219 10.22210581 1.75046556 7975 371 0 1.00000000 1.00000000 1.00000000
H 10.66570301 12.02522110 0.33588630 7976 371 0 1.00000000 1.00000000 1.00000000
H 12.19083746 11.22318530 1.11841442 7977 371 0 1.00000000 1.00000000 1.00000000
H 11.95187526 13.14470866 2.91086814 7978 371 0 1.00000000 1.00000000 1.00000000
H 10.77549674 13.72479980 1.78084245 7979 371 0 1.00000000 1.00000000 1.00000000
H 12.53325741 13.88070267 -0.09070472 7980 371 0 1.00000000 1.00000000 1.00000000
H 13.53445138 12.94315551 0.85904913 7981 371 0 1.00000000 1.00000000 1.00000000
H 14.29440391 15.23302558 0.84745472 7982 371 0 1.00000000 1.00000000 1.00000000
H 13.89920615 14.66734907 2.38796280 7983 371 0 1.00000000 1.00000000 1.00000000
H 12.91178597 17.22222038 1.77969109 7984 371 0 1.00000000 1.00000000 1.00000000
H 11.81555159 15.98116870 2.50809584 7985 371 0 1.00000000 1.00000000 1.00000000
H 11.85360012 16.32195323 0.75663088 7986 371 0 1.00000000 1.00000000 1.00000000
C 10.61882553 3.53411951 27.45395375 7987 372 0 0.56500000 0.56500000 0.56500000
C 11.48134910 4.51883677 26.67433140 7988 372 0 0.56500000 0.56500000 0.56500000
C 12.81192700 4.95114845 27.36044797 7989 372 0 0.56500000 0.56500000 0.56500000
C 13.97005217 3.92187044 27.40914328 7990 372 0 0.56500000 0.56500000 0.56500000
C 14.28385322 3.28616500 26.07546672 7991 372 0 0.56500000 0.56500000 0.56500000
C 15.59123486 2.41055316 26.18891620 7992 372 0 0.56500000 0.56500000 0.56500000
C 15.83679614 1.57896368 24.96757641 7993 372 0 0.56500000 0.56500000 0.56500000
H 10.38382006 3.90253495 28.44601901 7994 372 0 1.00000000 1.00000000 1.00000000
H 10.89707071 2.43918555 27.46405916 7995 372 0 1.00000000 1.00000000 1.00000000
H 9.62367912 3.41812239 26.93165282 7996 372 0 1.00000000 1.00000000 1.00000000
H 10.95005883 5.51128738 26.58876146 7997 372 0 1.00000000 1.00000000 1.00000000
H 11.66798086 4.19129117 25.61090737 7998 372 0 1.00000000 1.00000000 1.00000000
H 12.59446743 5.22135659 28.38683806 7999 372 0 1.00000000 1.00000000 1.00000000
H 13.17482555 5.82131526 26.80070757 8000 372 0 1.00000000 1.00000000 1.00000000
H 13.78782068 3.02815721 28.02560380 8001 372 0 1.00000000 1.00000000 1.00000000
H 14.86109356 4.44427529 27.79155860 8002 372 0 1.00000000 1.00000000 1.00000000
H 14.41289099 4.01752494 25.23432925 8003 372 0 1.00000000 1.00000000 1.00000000
H 13.48498436 2.59624393 25.75028797 8004 372 0 1.00000000 1.00000000 1.00000000
H 15.60308675 1.70974487 27.06294911 8005 372 0 1.00000000 1.00000000 1.00000000
H 16.45872245 3.03814532 26.36236814 8006 372 0 1.00000000 1.00000000 1.00000000
H 15.86227229 2.23115713 24.01001669 8007 372 0 1.00000000 1.00000000 1.00000000
H 15.03441644 0.86969845 24.89898147 8008 372 0 1.00000000 1.00000000 1.00000000
H 16.86176579 1.06388685 25.05996215 8009 372 0 1.00000000 1.00000000 1.00000000
C 24.50334835 39.12741852 12.35692194 8010 373 0 0.56500000 0.56500000 0.56500000
C 24.95858601 38.29607995 13.56066756 8011 373 0 0.56500000 0.56500000 0.56500000
C 23.76856207 37.93327754 14.47374733 8012 373 0 0.56500000 0.56500000 0.56500000
C 23.07145359 39.12383618 15.07526645 8013 373 0 0.56500000 0.56500000 0.56500000
C 23.88945023 40.15377960 15.92928331 8014 373 0 0.56500000 0.56500000 0.56500000
C 24.79787781 39.51583398 16.94446016 8015 373 0 0.56500000 0.56500000 0.56500000
C 25.05953736 40.44646437 18.14333325 8016 373 0 0.56500000 0.56500000 0.56500000
H 23.90536872 39.94133003 12.63917700 8017 373 0 1.00000000 1.00000000 1.00000000
H 23.91157505 38.65035198 11.56406569 8018 373 0 1.00000000 1.00000000 1.00000000
H 25.40155719 39.58047046 11.85201440 8019 373 0 1.00000000 1.00000000 1.00000000
H 25.69182935 38.86775574 14.16531630 8020 373 0 1.00000000 1.00000000 1.00000000
H 25.44232754 37.36558800 13.22626387 8021 373 0 1.00000000 1.00000000 1.00000000
H 24.23442810 37.30916294 15.23285627 8022 373 0 1.00000000 1.00000000 1.00000000
H 23.05410522 37.32440250 13.82192735 8023 373 0 1.00000000 1.00000000 1.00000000
H 22.32122025 38.66815589 15.72126484 8024 373 0 1.00000000 1.00000000 1.00000000
H 22.50924808 39.66916669 14.24494775 8025 373 0 1.00000000 1.00000000 1.00000000
H 23.17352368 40.75021705 16.49069092 8026 373 0 1.00000000 1.00000000 1.00000000
H 24.49161339 40.80169965 15.34931886 8027 373 0 1.00000000 1.00000000 1.00000000
H 25.77437256 39.27382133 16.49328639 8028 373 0 1.00000000 1.00000000 1.00000000
H 24.38702579 38.52235095 17.18625142 8029 373 0 1.00000000 1.00000000 1.00000000
H 25.81464333 40.10652842 18.84464798 8030 373 0 1.00000000 1.00000000 1.00000000
H 24.18829599 40.81103585 18.63601151 8031 373 0 1.00000000 1.00000000 1.00000000
H 25.52503350 41.38658170 17.62624504 8032 373 0 1.00000000 1.00000000 1.00000000
C 31.66444464 35.85195808 24.14555485 8033 374 0 0.56500000 0.56500000 0.56500000
C 30.92618519 36.98969346 24.87801932 8034 374 0 0.56500000 0.56500000 0.56500000
C 31.04468217 36.87805307 26.42702487 8035 374 0 0.56500000 0.56500000 0.56500000
C 30.37216423 38.06737331 27.16958713 8036 374 0 0.56500000 0.56500000 0.56500000
C 28.85342842 38.17572818 27.02988966 8037 374 0 0.56500000 0.56500000 0.56500000
C 27.97094147 37.03076273 27.46950873 8038 374 0 0.56500000 0.56500000 0.56500000
C 28.00560195 36.50930307 28.90171019 8039 374 0 0.56500000 0.56500000 0.56500000
H 31.65516024 35.93430874 23.05061411 8040 374 0 1.00000000 1.00000000 1.00000000
H 31.21580875 34.84677185 24.44690363 8041 374 0 1.00000000 1.00000000 1.00000000
H 32.70429586 35.82799873 24.47413368 8042 374 0 1.00000000 1.00000000 1.00000000
H 29.83456493 36.84125801 24.60371563 8043 374 0 1.00000000 1.00000000 1.00000000
H 31.18355726 38.00931137 24.61201619 8044 374 0 1.00000000 1.00000000 1.00000000
H 32.08216655 36.72028294 26.79007015 8045 374 0 1.00000000 1.00000000 1.00000000
H 30.54819992 35.91158709 26.70479333 8046 374 0 1.00000000 1.00000000 1.00000000
H 30.76174808 39.01637402 26.76899990 8047 374 0 1.00000000 1.00000000 1.00000000
H 30.73278951 38.02706686 28.19347595 8048 374 0 1.00000000 1.00000000 1.00000000
H 28.57894845 38.48415632 26.03435101 8049 374 0 1.00000000 1.00000000 1.00000000
H 28.53428547 39.01705115 27.64674591 8050 374 0 1.00000000 1.00000000 1.00000000
H 28.20622986 36.14581838 26.88498600 8051 374 0 1.00000000 1.00000000 1.00000000
H 26.91985763 37.21614653 27.17435562 8052 374 0 1.00000000 1.00000000 1.00000000
H 27.72691180 37.31213746 29.59244480 8053 374 0 1.00000000 1.00000000 1.00000000
H 29.00495993 36.23410456 29.27902709 8054 374 0 1.00000000 1.00000000 1.00000000
H 27.26793438 35.66772641 29.03066876 8055 374 0 1.00000000 1.00000000 1.00000000
C 26.99921710 43.06491938 43.12240370 8056 375 0 0.56500000 0.56500000 0.56500000
C 28.43646415 42.78303527 43.21962664 8057 375 0 0.56500000 0.56500000 0.56500000
C 29.32825889 43.34690992 42.06492575 8058 375 0 0.56500000 0.56500000 0.56500000
C 29.10228702 44.80056914 41.70382382 8059 375 0 0.56500000 0.56500000 0.56500000
C 30.08800649 45.26810248 40.69421700 8060 375 0 0.56500000 0.56500000 0.56500000
C 30.27731955 46.77799993 40.71252045 8061 375 0 0.56500000 0.56500000 0.56500000
C 29.12473816 47.63119257 39.98661269 8062 375 0 0.56500000 0.56500000 0.56500000
H 26.64132030 42.78586892 42.09444688 8063 375 0 1.00000000 1.00000000 1.00000000
H 26.74520252 44.10299914 43.41134737 8064 375 0 1.00000000 1.00000000 1.00000000
H 26.42713476 42.36699048 43.72180260 8065 375 0 1.00000000 1.00000000 1.00000000
H 28.66717669 41.69441062 43.23548318 8066 375 0 1.00000000 1.00000000 1.00000000
H 28.88747643 43.17629965 44.15932765 8067 375 0 1.00000000 1.00000000 1.00000000
H 29.18345461 42.78833081 41.14669567 8068 375 0 1.00000000 1.00000000 1.00000000
H 30.45106671 43.11601980 42.22629848 8069 375 0 1.00000000 1.00000000 1.00000000
H 29.30322862 45.45502693 42.56376883 8070 375 0 1.00000000 1.00000000 1.00000000
H 28.07522297 45.12571633 41.55041217 8071 375 0 1.00000000 1.00000000 1.00000000
H 29.94062179 45.06385195 39.66438363 8072 375 0 1.00000000 1.00000000 1.00000000
H 31.00176564 44.79701805 40.88062563 8073 375 0 1.00000000 1.00000000 1.00000000
H 31.15243781 47.00087958 40.13565556 8074 375 0 1.00000000 1.00000000 1.00000000
H 30.60026752 47.25940747 41.66270782 8075 375 0 1.00000000 1.00000000 1.00000000
H 29.04606442 47.57516469 38.87556511 8076 375 0 1.00000000 1.00000000 1.00000000
H 29.22817189 48.75735990 40.08297113 8077 375 0 1.00000000 1.00000000 1.00000000
H 28.13698177 47.27256116 40.40932209 8078 375 0 1.00000000 1.00000000 1.00000000
C 5.02949179 3.92840877 9.97664240 8079 376 0 0.56500000 0.56500000 0.56500000
C 5.09255981 2.49081304 10.42570508 8080 376 0 0.56500000 0.56500000 0.56500000
C 3.99770113 1.61156264 9.86783489 8081 376 0 0.56500000 0.56500000 0.56500000
C 3.98277821 1.42837162 8.35413022 8082 376 0 0.56500000 0.56500000 0.56500000
C 5.28913662 1.17660955 7.65168270 8083 376 0 0.56500000 0.56500000 0.56500000
C 5.13792072 0.69013962 6.21127712 8084 376 0 0.56500000 0.56500000 0.56500000
C 6.45680770 0.52809692 5.48795997 8085 376 0 0.56500000 0.56500000 0.56500000
H 4.12929876 4.41150832 10.21708434 8086 376 0 1.00000000 1.00000000 1.00000000
H 5.12202560 4.02860238 8.86744924 8087 376 0 1.00000000 1.00000000 1.00000000
H 5.85502491 4.46476192 10.40219542 8088 376 0 1.00000000 1.00000000 1.00000000
H 5.01902572 2.46713364 11.47750658 8089 376 0 1.00000000 1.00000000 1.00000000
H 6.15786416 2.13568400 10.24397669 8090 376 0 1.00000000 1.00000000 1.00000000
H 3.08091791 2.10283875 10.24259953 8091 376 0 1.00000000 1.00000000 1.00000000
H 4.13045351 0.64455877 10.35253725 8092 376 0 1.00000000 1.00000000 1.00000000
H 3.43781062 2.29107255 7.90461854 8093 376 0 1.00000000 1.00000000 1.00000000
H 3.32277512 0.60474961 8.25249876 8094 376 0 1.00000000 1.00000000 1.00000000
H 5.92456375 0.58459664 8.30484495 8095 376 0 1.00000000 1.00000000 1.00000000
H 5.89516779 2.09215717 7.71210147 8096 376 0 1.00000000 1.00000000 1.00000000
H 4.44402915 1.45125514 5.72448974 8097 376 0 1.00000000 1.00000000 1.00000000
H 4.66178612 -0.30573639 6.30512402 8098 376 0 1.00000000 1.00000000 1.00000000
H 7.15177334 -0.00411087 6.12822519 8099 376 0 1.00000000 1.00000000 1.00000000
H 6.87524476 1.57170254 5.16808328 8100 376 0 1.00000000 1.00000000 1.00000000
H 6.29107532 -0.08815387 4.55066961 8101 376 0 1.00000000 1.00000000 1.00000000
C -0.23566270 33.55579918 11.17523633 8102 377 0 0.56500000 0.56500000 0.56500000
C 0.73569542 34.34410819 12.05087123 8103 377 0 0.56500000 0.56500000 0.56500000
C 1.22052447 35.61290598 11.42119102 8104 377 0 0.56500000 0.56500000 0.56500000
C 2.22588468 36.39366488 12.25777174 8105 377 0 0.56500000 0.56500000 0.56500000
C 2.39206470 37.79714209 11.73009144 8106 377 0 0.56500000 0.56500000 0.56500000
C 3.39085939 38.76167179 12.39113432 8107 377 0 0.56500000 0.56500000 0.56500000
C 2.84963701 39.32805866 13.74035680 8108 377 0 0.56500000 0.56500000 0.56500000
H 0.23926067 33.19319849 10.24325188 8109 377 0 1.00000000 1.00000000 1.00000000
H -1.02524857 34.24870777 10.97653549 8110 377 0 1.00000000 1.00000000 1.00000000
H -0.57965876 32.69476573 11.63971781 8111 377 0 1.00000000 1.00000000 1.00000000
H 1.63002102 33.74673286 12.38153550 8112 377 0 1.00000000 1.00000000 1.00000000
H 0.25021079 34.70107372 12.93398959 8113 377 0 1.00000000 1.00000000 1.00000000
H 0.34229293 36.19941417 11.33177776 8114 377 0 1.00000000 1.00000000 1.00000000
H 1.60873310 35.44798242 10.41387369 8115 377 0 1.00000000 1.00000000 1.00000000
H 3.33198773 36.01344431 12.20248624 8116 377 0 1.00000000 1.00000000 1.00000000
H 1.91797930 36.19313224 13.31717693 8117 377 0 1.00000000 1.00000000 1.00000000
H 1.40873578 38.29769869 11.61379478 8118 377 0 1.00000000 1.00000000 1.00000000
H 2.71648543 37.67149061 10.71045193 8119 377 0 1.00000000 1.00000000 1.00000000
H 3.72408285 39.51468853 11.73341500 8120 377 0 1.00000000 1.00000000 1.00000000
H 4.28359854 38.18955809 12.55648822 8121 377 0 1.00000000 1.00000000 1.00000000
H 1.89794447 39.90522396 13.54713726 8122 377 0 1.00000000 1.00000000 1.00000000
H 3.58554157 40.05042996 14.19375425 8123 377 0 1.00000000 1.00000000 1.00000000
H 2.63528639 38.53420205 14.45891192 8124 377 0 1.00000000 1.00000000 1.00000000
C 36.82939984 50.38242848 -4.39304828 8125 378 0 0.56500000 0.56500000 0.56500000
C 38.15534148 51.01812076 -4.04082511 8126 378 0 0.56500000 0.56500000 0.56500000
C 38.04203655 52.51933778 -3.99507025 8127 378 0 0.56500000 0.56500000 0.56500000
C 39.36341990 53.26183783 -3.86014452 8128 378 0 0.56500000 0.56500000 0.56500000
C 40.29847178 53.21674397 -5.10635277 8129 378 0 0.56500000 0.56500000 0.56500000
C 41.53985987 54.03179210 -4.84099310 8130 378 0 0.56500000 0.56500000 0.56500000
C 41.27998240 55.52166560 -4.96248146 8131 378 0 0.56500000 0.56500000 0.56500000
H 36.05983229 50.84919027 -3.83429284 8132 378 0 1.00000000 1.00000000 1.00000000
H 36.67745537 49.30271432 -4.29507595 8133 378 0 1.00000000 1.00000000 1.00000000
H 36.51482550 50.50586692 -5.40589059 8134 378 0 1.00000000 1.00000000 1.00000000
H 38.92342002 50.77435846 -4.78186891 8135 378 0 1.00000000 1.00000000 1.00000000
H 38.51564400 50.49533926 -3.15550396 8136 378 0 1.00000000 1.00000000 1.00000000
H 37.50000919 52.84267733 -3.14350031 8137 378 0 1.00000000 1.00000000 1.00000000
H 37.57268426 52.77631476 -4.98377934 8138 378 0 1.00000000 1.00000000 1.00000000
H 39.99708180 52.84753037 -3.07387865 8139 378 0 1.00000000 1.00000000 1.00000000
H 39.14141074 54.31812258 -3.47903466 8140 378 0 1.00000000 1.00000000 1.00000000
H 39.69861004 53.49757719 -6.00856680 8141 378 0 1.00000000 1.00000000 1.00000000
H 40.65463681 52.07469406 -5.33664921 8142 378 0 1.00000000 1.00000000 1.00000000
H 42.35040825 53.77586749 -5.58617687 8143 378 0 1.00000000 1.00000000 1.00000000
H 42.00660581 53.74839110 -3.87945453 8144 378 0 1.00000000 1.00000000 1.00000000
H 40.83153099 55.97860263 -5.86877431 8145 378 0 1.00000000 1.00000000 1.00000000
H 42.24429724 56.09363030 -4.81484298 8146 378 0 1.00000000 1.00000000 1.00000000
H 40.53324816 55.92512213 -4.19768748 8147 378 0 1.00000000 1.00000000 1.00000000
C 4.12795471 41.59741540 28.48115368 8148 379 0 0.56500000 0.56500000 0.56500000
C 2.62309908 42.01514852 28.59639245 8149 379 0 0.56500000 0.56500000 0.56500000
C 2.15769809 42.92612749 27.44635467 8150 379 0 0.56500000 0.56500000 0.56500000
C 0.65882420 43.19585593 27.63125963 8151 379 0 0.56500000 0.56500000 0.56500000
C -0.14960868 43.88768195 26.54199270 8152 379 0 0.56500000 0.56500000 0.56500000
C -1.61565602 44.13521468 26.85016885 8153 379 0 0.56500000 0.56500000 0.56500000
C -2.23166637 45.08769723 25.83407836 8154 379 0 0.56500000 0.56500000 0.56500000
H 4.41186435 41.07956005 27.55337990 8155 379 0 1.00000000 1.00000000 1.00000000
H 4.56085230 41.05035445 29.35313620 8156 379 0 1.00000000 1.00000000 1.00000000
H 4.72182499 42.47166817 28.45063317 8157 379 0 1.00000000 1.00000000 1.00000000
H 2.41972461 42.40596446 29.61178154 8158 379 0 1.00000000 1.00000000 1.00000000
H 1.95586396 41.16213258 28.68376441 8159 379 0 1.00000000 1.00000000 1.00000000
H 2.33086867 42.32321699 26.54891633 8160 379 0 1.00000000 1.00000000 1.00000000
H 2.75121350 43.85479343 27.31457755 8161 379 0 1.00000000 1.00000000 1.00000000
H 0.40864286 43.71318433 28.58579522 8162 379 0 1.00000000 1.00000000 1.00000000
H 0.20989189 42.15667080 27.73347308 8163 379 0 1.00000000 1.00000000 1.00000000
H -0.04727010 43.28247851 25.64075092 8164 379 0 1.00000000 1.00000000 1.00000000
H 0.29872566 44.86604491 26.22250036 8165 379 0 1.00000000 1.00000000 1.00000000
H -1.67693050 44.39053036 27.86340171 8166 379 0 1.00000000 1.00000000 1.00000000
H -2.14095575 43.17217171 26.84143214 8167 379 0 1.00000000 1.00000000 1.00000000
H -3.26534523 44.78922427 25.64847477 8168 379 0 1.00000000 1.00000000 1.00000000
H -1.58676713 45.00434918 24.94092420 8169 379 0 1.00000000 1.00000000 1.00000000
H -2.13383109 46.12761459 26.06154603 8170 379 0 1.00000000 1.00000000 1.00000000
C 28.05673162 7.75300319 25.76309885 8171 380 0 0.56500000 0.56500000 0.56500000
C 28.48897645 6.82175771 24.63184097 8172 380 0 0.56500000 0.56500000 0.56500000
C 27.42627636 6.43149194 23.61425426 8173 380 0 0.56500000 0.56500000 0.56500000
C 27.10313982 7.59362070 22.62033428 8174 380 0 0.56500000 0.56500000 0.56500000
C 26.16895089 7.10554554 21.44770255 8175 380 0 0.56500000 0.56500000 0.56500000
C 26.44713667 5.65291107 20.90271807 8176 380 0 0.56500000 0.56500000 0.56500000
C 25.64759605 4.66451450 21.62643280 8177 380 0 0.56500000 0.56500000 0.56500000
H 28.75665828 8.01423272 26.53347617 8178 380 0 1.00000000 1.00000000 1.00000000
H 27.28820021 7.13147093 26.25760736 8179 380 0 1.00000000 1.00000000 1.00000000
H 27.47449123 8.60073727 25.35643301 8180 380 0 1.00000000 1.00000000 1.00000000
H 28.99720856 5.92280470 25.04974638 8181 380 0 1.00000000 1.00000000 1.00000000
H 29.30874801 7.38543625 24.01970357 8182 380 0 1.00000000 1.00000000 1.00000000
H 26.54161255 6.04522440 24.09891810 8183 380 0 1.00000000 1.00000000 1.00000000
H 27.89231698 5.54786012 23.05272982 8184 380 0 1.00000000 1.00000000 1.00000000
H 28.01576467 7.75866580 22.10789772 8185 380 0 1.00000000 1.00000000 1.00000000
H 26.85013038 8.56051223 23.12082763 8186 380 0 1.00000000 1.00000000 1.00000000
H 26.37476344 7.80716806 20.60863205 8187 380 0 1.00000000 1.00000000 1.00000000
H 25.09630252 7.20108132 21.75394032 8188 380 0 1.00000000 1.00000000 1.00000000
H 27.57516461 5.57420165 20.95914194 8189 380 0 1.00000000 1.00000000 1.00000000
H 26.17897575 5.70009008 19.82465256 8190 380 0 1.00000000 1.00000000 1.00000000
H 24.63028362 5.08795514 21.66250493 8191 380 0 1.00000000 1.00000000 1.00000000
H 26.02499834 4.46227097 22.64187411 8192 380 0 1.00000000 1.00000000 1.00000000
H 25.61336585 3.68864807 21.18808792 8193 380 0 1.00000000 1.00000000 1.00000000
C 18.27837724 30.20313653 41.37683160 8194 381 0 0.56500000 0.56500000 0.56500000
C 17.92424141 31.38028939 42.27352952 8195 381 0 0.56500000 0.56500000 0.56500000
C 17.39938346 30.83890465 43.56518471 8196 381 0 0.56500000 0.56500000 0.56500000
C 16.71921614 31.76051931 44.58155717 8197 381 0 0.56500000 0.56500000 0.56500000
C 17.66979119 32.42706801 45.54939169 8198 381 0 0.56500000 0.56500000 0.56500000
C 17.07132744 33.72152717 46.15039735 8199 381 0 0.56500000 0.56500000 0.56500000
C 18.05284687 34.33943393 47.15682120 8200 381 0 0.56500000 0.56500000 0.56500000
H 19.06167500 30.37466372 40.66572720 8201 381 0 1.00000000 1.00000000 1.00000000
H 17.40562044 29.68604891 40.87306829 8202 381 0 1.00000000 1.00000000 1.00000000
H 18.75007236 29.48860696 41.99338659 8203 381 0 1.00000000 1.00000000 1.00000000
H 17.17850762 32.06485379 41.89619629 8204 381 0 1.00000000 1.00000000 1.00000000
H 18.92000620 32.06122549 42.35150884 8205 381 0 1.00000000 1.00000000 1.00000000
H 18.13927091 30.25351650 44.17084971 8206 381 0 1.00000000 1.00000000 1.00000000
H 16.79307777 29.96754943 43.23925317 8207 381 0 1.00000000 1.00000000 1.00000000
H 15.85939895 31.35969966 45.17832078 8208 381 0 1.00000000 1.00000000 1.00000000
H 16.30504837 32.59573762 44.02466538 8209 381 0 1.00000000 1.00000000 1.00000000
H 18.60034353 32.56151262 45.06874458 8210 381 0 1.00000000 1.00000000 1.00000000
H 17.89175200 31.78887674 46.47280733 8211 381 0 1.00000000 1.00000000 1.00000000
H 16.16631220 33.37857972 46.66287874 8212 381 0 1.00000000 1.00000000 1.00000000
H 16.79463865 34.41586411 45.29647658 8213 381 0 1.00000000 1.00000000 1.00000000
H 18.40057617 33.57348259 47.76938327 8214 381 0 1.00000000 1.00000000 1.00000000
H 17.60308287 35.12810886 47.73275653 8215 381 0 1.00000000 1.00000000 1.00000000
H 18.92476911 34.73771359 46.69448453 8216 381 0 1.00000000 1.00000000 1.00000000
C 33.48678879 16.30294362 4.36509047 8217 382 0 0.56500000 0.56500000 0.56500000
C 34.47438717 15.58597547 5.23371307 8218 382 0 0.56500000 0.56500000 0.56500000
C 34.30572996 14.08454381 5.16569190 8219 382 0 0.56500000 0.56500000 0.56500000
C 35.16387729 13.29209207 6.12209477 8220 382 0 0.56500000 0.56500000 0.56500000
C 34.64189095 11.93077555 6.69150545 8221 382 0 0.56500000 0.56500000 0.56500000
C 35.67750072 11.15473815 7.43370517 8222 382 0 0.56500000 0.56500000 0.56500000
C 36.88445047 10.66863874 6.63308393 8223 382 0 0.56500000 0.56500000 0.56500000
H 32.46502792 16.11104026 4.77919699 8224 382 0 1.00000000 1.00000000 1.00000000
H 33.36190791 15.81803523 3.39401750 8225 382 0 1.00000000 1.00000000 1.00000000
H 33.57186980 17.41387625 4.34054649 8226 382 0 1.00000000 1.00000000 1.00000000
H 34.30142480 15.91182134 6.27325333 8227 382 0 1.00000000 1.00000000 1.00000000
H 35.51566882 15.77891812 5.05180149 8228 382 0 1.00000000 1.00000000 1.00000000
H 34.40854021 13.72653032 4.18052479 8229 382 0 1.00000000 1.00000000 1.00000000
H 33.17080183 13.85429854 5.44033074 8230 382 0 1.00000000 1.00000000 1.00000000
H 35.37693257 13.81995865 7.07245608 8231 382 0 1.00000000 1.00000000 1.00000000
H 36.11266687 13.03386460 5.63599636 8232 382 0 1.00000000 1.00000000 1.00000000
H 34.26217305 11.29176802 5.89890025 8233 382 0 1.00000000 1.00000000 1.00000000
H 33.70171964 12.11342858 7.27575017 8234 382 0 1.00000000 1.00000000 1.00000000
H 35.28335218 10.24498555 7.87064709 8235 382 0 1.00000000 1.00000000 1.00000000
H 36.13375602 11.61726282 8.26480778 8236 382 0 1.00000000 1.00000000 1.00000000
H 37.56496562 11.50896691 6.35673479 8237 382 0 1.00000000 1.00000000 1.00000000
H 36.64668663 10.11851896 5.66754308 8238 382 0 1.00000000 1.00000000 1.00000000
H 37.37328350 9.96260667 7.32173681 8239 382 0 1.00000000 1.00000000 1.00000000
C 40.34791162 50.77815882 14.37979763 8240 383 0 0.56500000 0.56500000 0.56500000
C 39.29487125 50.68474033 13.30087940 8241 383 0 0.56500000 0.56500000 0.56500000
C 38.34386965 51.89090390 13.39695271 8242 383 0 0.56500000 0.56500000 0.56500000
C 37.56173013 52.14188328 12.08446127 8243 383 0 0.56500000 0.56500000 0.56500000
C 36.52151451 53.32379484 12.11911138 8244 383 0 0.56500000 0.56500000 0.56500000
C 35.82198979 53.61350859 10.81029450 8245 383 0 0.56500000 0.56500000 0.56500000
C 35.04066875 54.89987893 11.01821061 8246 383 0 0.56500000 0.56500000 0.56500000
H 40.95200721 51.64989919 14.06772285 8247 383 0 1.00000000 1.00000000 1.00000000
H 41.00522142 49.88890188 14.22734325 8248 383 0 1.00000000 1.00000000 1.00000000
H 39.94361904 50.80297581 15.37425754 8249 383 0 1.00000000 1.00000000 1.00000000
H 38.82658615 49.72808795 13.48613129 8250 383 0 1.00000000 1.00000000 1.00000000
H 39.92701733 50.63633157 12.34228494 8251 383 0 1.00000000 1.00000000 1.00000000
H 38.99341928 52.75468026 13.70264413 8252 383 0 1.00000000 1.00000000 1.00000000
H 37.52965309 51.60559190 14.14452567 8253 383 0 1.00000000 1.00000000 1.00000000
H 37.07438072 51.14801312 11.91898554 8254 383 0 1.00000000 1.00000000 1.00000000
H 38.22823185 52.36096904 11.25647373 8255 383 0 1.00000000 1.00000000 1.00000000
H 37.05458733 54.24246754 12.50370227 8256 383 0 1.00000000 1.00000000 1.00000000
H 35.81154032 53.14493202 13.01285528 8257 383 0 1.00000000 1.00000000 1.00000000
H 35.18434307 52.70167145 10.58695459 8258 383 0 1.00000000 1.00000000 1.00000000
H 36.53531201 53.63887160 9.99996931 8259 383 0 1.00000000 1.00000000 1.00000000
H 35.65566434 55.81917301 11.28216902 8260 383 0 1.00000000 1.00000000 1.00000000
H 34.41578989 54.71355556 11.87719972 8261 383 0 1.00000000 1.00000000 1.00000000
H 34.50940197 55.23951727 10.06971301 8262 383 0 1.00000000 1.00000000 1.00000000
C 20.52779345 31.32953966 34.25115749 8263 384 0 0.56500000 0.56500000 0.56500000
C 20.48454334 32.81315252 34.70499490 8264 384 0 0.56500000 0.56500000 0.56500000
C 21.63405088 33.61091520 34.18482389 8265 384 0 0.56500000 0.56500000 0.56500000
C 21.47388102 35.03723999 34.71729940 8266 384 0 0.56500000 0.56500000 0.56500000
C 22.77252461 35.76770433 34.88459963 8267 384 0 0.56500000 0.56500000 0.56500000
C 22.71833281 37.27134222 35.36788116 8268 384 0 0.56500000 0.56500000 0.56500000
C 22.12193490 38.21963641 34.41069977 8269 384 0 0.56500000 0.56500000 0.56500000
H 20.24995262 31.19962406 33.23323465 8270 384 0 1.00000000 1.00000000 1.00000000
H 19.92716930 30.72812228 34.93018141 8271 384 0 1.00000000 1.00000000 1.00000000
H 21.56675286 31.03934502 34.34183779 8272 384 0 1.00000000 1.00000000 1.00000000
H 20.30294327 32.92446558 35.76928349 8273 384 0 1.00000000 1.00000000 1.00000000
H 19.58042396 33.22207777 34.21223244 8274 384 0 1.00000000 1.00000000 1.00000000
H 21.63393053 33.59659429 33.06154305 8275 384 0 1.00000000 1.00000000 1.00000000
H 22.58793967 33.14630963 34.47281778 8276 384 0 1.00000000 1.00000000 1.00000000
H 20.99663768 34.77640035 35.66567056 8277 384 0 1.00000000 1.00000000 1.00000000
H 20.76557477 35.65262165 34.13207480 8278 384 0 1.00000000 1.00000000 1.00000000
H 23.26830966 35.81256797 33.91803011 8279 384 0 1.00000000 1.00000000 1.00000000
H 23.38662501 35.18719201 35.58877883 8280 384 0 1.00000000 1.00000000 1.00000000
H 23.75661387 37.41345289 35.45637076 8281 384 0 1.00000000 1.00000000 1.00000000
H 22.34316281 37.34453613 36.40478306 8282 384 0 1.00000000 1.00000000 1.00000000
H 22.12197360 37.85480217 33.37171494 8283 384 0 1.00000000 1.00000000 1.00000000
H 22.53043505 39.24364151 34.42943725 8284 384 0 1.00000000 1.00000000 1.00000000
H 21.06946588 38.31931612 34.64147944 8285 384 0 1.00000000 1.00000000 1.00000000
C 20.55590774 10.39266999 37.45484611 8286 385 0 0.56500000 0.56500000 0.56500000
C 19.63630082 9.62617632 36.52660345 8287 385 0 0.56500000 0.56500000 0.56500000
C 20.19726661 8.45335545 35.67561406 8288 385 0 0.56500000 0.56500000 0.56500000
C 20.14061072 7.12970925 36.45499306 8289 385 0 0.56500000 0.56500000 0.56500000
C 20.93099919 6.06361094 35.77437746 8290 385 0 0.56500000 0.56500000 0.56500000
C 20.71514740 4.67187663 36.35614052 8291 385 0 0.56500000 0.56500000 0.56500000
C 19.36379354 4.07148166 35.91778279 8292 385 0 0.56500000 0.56500000 0.56500000
H 21.57690270 10.56995596 36.99020169 8293 385 0 1.00000000 1.00000000 1.00000000
H 20.76400933 9.79013968 38.32364768 8294 385 0 1.00000000 1.00000000 1.00000000
H 20.25541717 11.36827497 37.88251739 8295 385 0 1.00000000 1.00000000 1.00000000
H 19.12101984 10.31349229 35.91701805 8296 385 0 1.00000000 1.00000000 1.00000000
H 18.88524508 9.13415594 37.12382597 8297 385 0 1.00000000 1.00000000 1.00000000
H 21.27692017 8.65114329 35.40502527 8298 385 0 1.00000000 1.00000000 1.00000000
H 19.68079542 8.29756269 34.68223574 8299 385 0 1.00000000 1.00000000 1.00000000
H 19.13454001 6.85166907 36.62435765 8300 385 0 1.00000000 1.00000000 1.00000000
H 20.48977701 7.32799008 37.42602537 8301 385 0 1.00000000 1.00000000 1.00000000
H 21.98381090 6.36026574 35.88771587 8302 385 0 1.00000000 1.00000000 1.00000000
H 20.72242947 6.05658766 34.72778695 8303 385 0 1.00000000 1.00000000 1.00000000
H 20.83709606 4.77452133 37.50449046 8304 385 0 1.00000000 1.00000000 1.00000000
H 21.47520761 3.96843234 35.95412470 8305 385 0 1.00000000 1.00000000 1.00000000
H 18.98279822 3.19205543 36.54166703 8306 385 0 1.00000000 1.00000000 1.00000000
H 19.38354122 3.64433345 34.86920166 8307 385 0 1.00000000 1.00000000 1.00000000
H 18.64448014 4.91609973 35.82263451 8308 385 0 1.00000000 1.00000000 1.00000000
C 40.68996690 19.09556002 16.00649675 8309 386 0 0.56500000 0.56500000 0.56500000
C 40.41528209 17.96861886 14.91204288 8310 386 0 0.56500000 0.56500000 0.56500000
C 40.32500198 16.61505001 15.58724056 8311 386 0 0.56500000 0.56500000 0.56500000
C 39.73025990 15.55606762 14.64698989 8312 386 0 0.56500000 0.56500000 0.56500000
C 39.64366491 14.08499169 15.18740571 8313 386 0 0.56500000 0.56500000 0.56500000
C 39.28990340 13.20262845 14.01209550 8314 386 0 0.56500000 0.56500000 0.56500000
C 39.16858321 11.68830717 14.38820883 8315 386 0 0.56500000 0.56500000 0.56500000
H 41.69366462 18.88218664 16.42119844 8316 386 0 1.00000000 1.00000000 1.00000000
H 39.90251512 18.97789573 16.83172237 8317 386 0 1.00000000 1.00000000 1.00000000
H 40.57095839 20.10379414 15.60618228 8318 386 0 1.00000000 1.00000000 1.00000000
H 41.16905324 18.00587538 14.10255737 8319 386 0 1.00000000 1.00000000 1.00000000
H 39.34364971 18.04729325 14.46391461 8320 386 0 1.00000000 1.00000000 1.00000000
H 39.78102837 16.73371073 16.56005344 8321 386 0 1.00000000 1.00000000 1.00000000
H 41.30234602 16.32175017 15.88735068 8322 386 0 1.00000000 1.00000000 1.00000000
H 40.33699085 15.52159118 13.74685719 8323 386 0 1.00000000 1.00000000 1.00000000
H 38.72194180 15.85250787 14.21183012 8324 386 0 1.00000000 1.00000000 1.00000000
H 38.94690551 14.01723680 15.98104596 8325 386 0 1.00000000 1.00000000 1.00000000
H 40.68451876 13.71964587 15.49877896 8326 386 0 1.00000000 1.00000000 1.00000000
H 40.03276351 13.30022651 13.19367458 8327 386 0 1.00000000 1.00000000 1.00000000
H 38.31483542 13.47727046 13.55412020 8328 386 0 1.00000000 1.00000000 1.00000000
H 39.01477614 11.21950430 13.45836431 8329 386 0 1.00000000 1.00000000 1.00000000
H 38.35467540 11.48049952 15.09748102 8330 386 0 1.00000000 1.00000000 1.00000000
H 40.15184140 11.35581170 14.79206525 8331 386 0 1.00000000 1.00000000 1.00000000
C 38.48255396 20.69624025 19.19260503 8332 387 0 0.56500000 0.56500000 0.56500000
C 38.70928289 22.21920615 18.89284931 8333 387 0 0.56500000 0.56500000 0.56500000
C 40.11218207 22.59042740 18.47744039 8334 387 0 0.56500000 0.56500000 0.56500000
C 41.20247516 22.21882661 19.46026783 8335 387 0 0.56500000 0.56500000 0.56500000
C 42.49069634 22.92174045 19.18648088 8336 387 0 0.56500000 0.56500000 0.56500000
C 43.51048547 22.63041852 20.26737359 8337 387 0 0.56500000 0.56500000 0.56500000
C 44.81881552 23.50298603 20.17388542 8338 387 0 0.56500000 0.56500000 0.56500000
H 39.19389345 20.33143546 19.99502345 8339 387 0 1.00000000 1.00000000 1.00000000
H 38.66140910 20.12404040 18.30479730 8340 387 0 1.00000000 1.00000000 1.00000000
H 37.49581534 20.56662403 19.58291186 8341 387 0 1.00000000 1.00000000 1.00000000
H 38.33474915 22.76947555 19.74832969 8342 387 0 1.00000000 1.00000000 1.00000000
H 38.09097283 22.50260639 18.10106956 8343 387 0 1.00000000 1.00000000 1.00000000
H 40.18877593 23.64425377 18.30653132 8344 387 0 1.00000000 1.00000000 1.00000000
H 40.23071132 22.21524553 17.44564254 8345 387 0 1.00000000 1.00000000 1.00000000
H 41.40433621 21.15038976 19.42928292 8346 387 0 1.00000000 1.00000000 1.00000000
H 40.85245081 22.47985128 20.50315582 8347 387 0 1.00000000 1.00000000 1.00000000
H 42.29581274 24.00779885 19.12814240 8348 387 0 1.00000000 1.00000000 1.00000000
H 42.91020969 22.65487152 18.16969613 8349 387 0 1.00000000 1.00000000 1.00000000
H 43.91319896 21.57451187 20.14170700 8350 387 0 1.00000000 1.00000000 1.00000000
H 43.07903703 22.68612766 21.30149997 8351 387 0 1.00000000 1.00000000 1.00000000
H 45.49284549 23.36009934 20.97676215 8352 387 0 1.00000000 1.00000000 1.00000000
H 44.38998836 24.50837206 20.43211840 8353 387 0 1.00000000 1.00000000 1.00000000
H 45.36369733 23.31944009 19.22266886 8354 387 0 1.00000000 1.00000000 1.00000000
C 41.55502734 23.88185273 -3.76645387 8355 388 0 0.56500000 0.56500000 0.56500000
C 40.78247652 22.89431784 -4.62083114 8356 388 0 0.56500000 0.56500000 0.56500000
C 39.35456552 22.54504857 -4.08826684 8357 388 0 0.56500000 0.56500000 0.56500000
C 38.44004507 23.69942322 -3.78524628 8358 388 0 0.56500000 0.56500000 0.56500000
C 37.07158034 23.08574607 -3.26738124 8359 388 0 0.56500000 0.56500000 0.56500000
C 37.14172571 22.87766864 -1.68353505 8360 388 0 0.56500000 0.56500000 0.56500000
C 35.79566501 22.42363108 -1.04407886 8361 388 0 0.56500000 0.56500000 0.56500000
H 41.24657930 24.89129169 -3.77093182 8362 388 0 1.00000000 1.00000000 1.00000000
H 42.54260681 23.95906020 -4.13329248 8363 388 0 1.00000000 1.00000000 1.00000000
H 41.59245893 23.63666060 -2.73535942 8364 388 0 1.00000000 1.00000000 1.00000000
H 41.41046877 21.97057830 -4.67112224 8365 388 0 1.00000000 1.00000000 1.00000000
H 40.70329055 23.26358260 -5.60124102 8366 388 0 1.00000000 1.00000000 1.00000000
H 39.51359435 22.08518325 -3.14087563 8367 388 0 1.00000000 1.00000000 1.00000000
H 38.74344839 21.92863780 -4.78317807 8368 388 0 1.00000000 1.00000000 1.00000000
H 38.30242892 24.34937374 -4.62969631 8369 388 0 1.00000000 1.00000000 1.00000000
H 38.88098856 24.41249291 -3.03657950 8370 388 0 1.00000000 1.00000000 1.00000000
H 36.83441588 22.09397117 -3.78442301 8371 388 0 1.00000000 1.00000000 1.00000000
H 36.23371078 23.71267569 -3.53111861 8372 388 0 1.00000000 1.00000000 1.00000000
H 37.64096328 23.80998829 -1.27357262 8373 388 0 1.00000000 1.00000000 1.00000000
H 37.80314098 21.97758521 -1.51269266 8374 388 0 1.00000000 1.00000000 1.00000000
H 35.07768785 23.18344546 -1.05821277 8375 388 0 1.00000000 1.00000000 1.00000000
H 35.94539751 22.21241706 -0.01157416 8376 388 0 1.00000000 1.00000000 1.00000000
H 35.32270179 21.53674957 -1.45944320 8377 388 0 1.00000000 1.00000000 1.00000000
C 17.78590785 24.66600152 39.48983260 8378 389 0 0.56500000 0.56500000 0.56500000
C 17.92471955 23.37229715 38.72039244 8379 389 0 0.56500000 0.56500000 0.56500000
C 19.39723205 23.04893943 38.49309525 8380 389 0 0.56500000 0.56500000 0.56500000
C 19.62229800 21.82710966 37.70212986 8381 389 0 0.56500000 0.56500000 0.56500000
C 19.16063947 22.00109803 36.27815082 8382 389 0 0.56500000 0.56500000 0.56500000
C 19.24849888 20.87378083 35.29024158 8383 389 0 0.56500000 0.56500000 0.56500000
C 20.63232899 20.42305569 34.80337025 8384 389 0 0.56500000 0.56500000 0.56500000
H 16.74752695 24.86509442 39.58139662 8385 389 0 1.00000000 1.00000000 1.00000000
H 18.19946260 25.53818383 38.94635053 8386 389 0 1.00000000 1.00000000 1.00000000
H 18.26761382 24.56181129 40.43866782 8387 389 0 1.00000000 1.00000000 1.00000000
H 17.43696936 23.48549566 37.77233648 8388 389 0 1.00000000 1.00000000 1.00000000
H 17.38067271 22.56138611 39.24367701 8389 389 0 1.00000000 1.00000000 1.00000000
H 19.91438353 22.98154725 39.53024963 8390 389 0 1.00000000 1.00000000 1.00000000
H 19.81786404 23.91415546 38.01214052 8391 389 0 1.00000000 1.00000000 1.00000000
H 18.97393098 20.99978405 38.01363915 8392 389 0 1.00000000 1.00000000 1.00000000
H 20.64791968 21.48789497 37.70776759 8393 389 0 1.00000000 1.00000000 1.00000000
H 19.73573082 22.77699268 35.77995976 8394 389 0 1.00000000 1.00000000 1.00000000
H 18.19968484 22.40302670 36.23445302 8395 389 0 1.00000000 1.00000000 1.00000000
H 18.77342837 21.10777635 34.33898316 8396 389 0 1.00000000 1.00000000 1.00000000
H 18.75240059 19.96573778 35.73235059 8397 389 0 1.00000000 1.00000000 1.00000000
H 21.12164857 21.26164911 34.30903558 8398 389 0 1.00000000 1.00000000 1.00000000
H 20.40695995 19.71048951 33.91883394 8399 389 0 1.00000000 1.00000000 1.00000000
H 21.33442546 19.96668587 35.45773527 8400 389 0 1.00000000 1.00000000 1.00000000
C 4.10065054 11.84235775 9.63684144 8401 390 0 0.56500000 0.56500000 0.56500000
C 3.68602914 13.26168772 10.16054889 8402 390 0 0.56500000 0.56500000 0.56500000
C 4.39760277 14.45457346 9.66602214 8403 390 0 0.56500000 0.56500000 0.56500000
C 4.04974046 15.09742461 8.36741036 8404 390 0 0.56500000 0.56500000 0.56500000
C 5.24363495 15.80644084 7.82487901 8405 390 0 0.56500000 0.56500000 0.56500000
C 5.08349042 16.38843495 6.38024276 8406 390 0 0.56500000 0.56500000 0.56500000
C 6.45820111 16.70334843 5.79797619 8407 390 0 0.56500000 0.56500000 0.56500000
H 3.41521985 11.09001561 10.00373017 8408 390 0 1.00000000 1.00000000 1.00000000
H 5.07917626 11.54630644 10.01531496 8409 390 0 1.00000000 1.00000000 1.00000000
H 4.03828769 11.92207138 8.54664627 8410 390 0 1.00000000 1.00000000 1.00000000
H 3.68860670 13.25397770 11.24597009 8411 390 0 1.00000000 1.00000000 1.00000000
H 2.60547371 13.32022986 10.02432132 8412 390 0 1.00000000 1.00000000 1.00000000
H 5.44753025 14.15442645 9.61350760 8413 390 0 1.00000000 1.00000000 1.00000000
H 4.45387433 15.19321118 10.46803046 8414 390 0 1.00000000 1.00000000 1.00000000
H 3.07233750 15.60722836 8.48036579 8415 390 0 1.00000000 1.00000000 1.00000000
H 3.90059725 14.31085731 7.59002457 8416 390 0 1.00000000 1.00000000 1.00000000
H 6.04753334 15.11650527 7.66351172 8417 390 0 1.00000000 1.00000000 1.00000000
H 5.50815516 16.62306805 8.39197672 8418 390 0 1.00000000 1.00000000 1.00000000
H 4.47341063 17.30709797 6.37820358 8419 390 0 1.00000000 1.00000000 1.00000000
H 4.67987351 15.66772409 5.64647285 8420 390 0 1.00000000 1.00000000 1.00000000
H 6.42936532 16.90317434 4.77311607 8421 390 0 1.00000000 1.00000000 1.00000000
H 7.27760937 16.02489333 5.99584397 8422 390 0 1.00000000 1.00000000 1.00000000
H 6.89853311 17.58749382 6.35338472 8423 390 0 1.00000000 1.00000000 1.00000000
C 34.20730957 12.85418148 40.65829917 8424 391 0 0.56500000 0.56500000 0.56500000
C 33.78142122 12.79948478 39.18617731 8425 391 0 0.56500000 0.56500000 0.56500000
C 33.71586219 14.24809970 38.57943221 8426 391 0 0.56500000 0.56500000 0.56500000
C 32.66275111 15.11776245 39.15422705 8427 391 0 0.56500000 0.56500000 0.56500000
C 32.89664446 16.57910209 38.84201434 8428 391 0 0.56500000 0.56500000 0.56500000
C 32.23967228 16.95201316 37.50471131 8429 391 0 0.56500000 0.56500000 0.56500000
C 30.71809766 16.90535718 37.39042010 8430 391 0 0.56500000 0.56500000 0.56500000
H 33.42224517 13.18335386 41.36611657 8431 391 0 1.00000000 1.00000000 1.00000000
H 35.09655407 13.50312410 40.69598100 8432 391 0 1.00000000 1.00000000 1.00000000
H 34.59448158 11.86986994 41.02632283 8433 391 0 1.00000000 1.00000000 1.00000000
H 32.77536337 12.44402225 39.11372216 8434 391 0 1.00000000 1.00000000 1.00000000
H 34.43076336 12.16550714 38.63835463 8435 391 0 1.00000000 1.00000000 1.00000000
H 33.54468108 14.13466188 37.53344599 8436 391 0 1.00000000 1.00000000 1.00000000
H 34.72739841 14.72856339 38.68661124 8437 391 0 1.00000000 1.00000000 1.00000000
H 32.71548486 14.93835269 40.25017153 8438 391 0 1.00000000 1.00000000 1.00000000
H 31.64561642 14.81392274 38.80984683 8439 391 0 1.00000000 1.00000000 1.00000000
H 33.92917377 16.84711601 38.69087116 8440 391 0 1.00000000 1.00000000 1.00000000
H 32.60201410 17.29027515 39.63471916 8441 391 0 1.00000000 1.00000000 1.00000000
H 32.56759864 16.35964014 36.62690010 8442 391 0 1.00000000 1.00000000 1.00000000
H 32.49093313 18.04345278 37.26201710 8443 391 0 1.00000000 1.00000000 1.00000000
H 30.23015800 15.93630928 37.46493619 8444 391 0 1.00000000 1.00000000 1.00000000
H 30.56157772 17.31198437 36.37348420 8445 391 0 1.00000000 1.00000000 1.00000000
H 30.27971744 17.54340055 38.18309326 8446 391 0 1.00000000 1.00000000 1.00000000
C 40.77261023 25.58727233 36.28926813 8447 392 0 0.56500000 0.56500000 0.56500000
C 41.89536754 24.62558964 36.76167855 8448 392 0 0.56500000 0.56500000 0.56500000
C 41.72741062 24.22209945 38.22192510 8449 392 0 0.56500000 0.56500000 0.56500000
C 42.11023805 25.28583344 39.21717162 8450 392 0 0.56500000 0.56500000 0.56500000
C 43.51342287 25.86683690 38.99390397 8451 392 0 0.56500000 0.56500000 0.56500000
C 43.98620443 26.69856132 40.17841871 8452 392 0 0.56500000 0.56500000 0.56500000
C 45.52290403 26.77566728 40.19929828 8453 392 0 0.56500000 0.56500000 0.56500000
H 40.88536590 26.51561290 36.73390534 8454 392 0 1.00000000 1.00000000 1.00000000
H 39.69291502 25.24918885 36.33069662 8455 392 0 1.00000000 1.00000000 1.00000000
H 40.80869510 25.77471610 35.22864129 8456 392 0 1.00000000 1.00000000 1.00000000
H 42.85699890 25.13291297 36.57034815 8457 392 0 1.00000000 1.00000000 1.00000000
H 41.79665193 23.71053140 36.19522054 8458 392 0 1.00000000 1.00000000 1.00000000
H 42.44483263 23.31558548 38.27034313 8459 392 0 1.00000000 1.00000000 1.00000000
H 40.71719993 23.89729533 38.46926638 8460 392 0 1.00000000 1.00000000 1.00000000
H 42.07854784 25.00381466 40.29894376 8461 392 0 1.00000000 1.00000000 1.00000000
H 41.40978179 26.14191937 39.21755788 8462 392 0 1.00000000 1.00000000 1.00000000
H 43.68389624 26.42572469 38.00186406 8463 392 0 1.00000000 1.00000000 1.00000000
H 44.21660806 25.02379445 38.89107291 8464 392 0 1.00000000 1.00000000 1.00000000
H 43.60138505 26.23430459 41.10203938 8465 392 0 1.00000000 1.00000000 1.00000000
H 43.69067563 27.73245684 40.16318961 8466 392 0 1.00000000 1.00000000 1.00000000
H 45.95737801 25.89633640 40.53418630 8467 392 0 1.00000000 1.00000000 1.00000000
H 45.78699320 27.63602688 40.80019895 8468 392 0 1.00000000 1.00000000 1.00000000
H 45.88242470 27.02514272 39.15369009 8469 392 0 1.00000000 1.00000000 1.00000000
C 14.27273022 48.08029821 1.62708559 8470 393 0 0.56500000 0.56500000 0.56500000
C 14.35942417 49.27840531 2.46508241 8471 393 0 0.56500000 0.56500000 0.56500000
C 15.67009299 49.60315438 3.05495651 8472 393 0 0.56500000 0.56500000 0.56500000
C 15.88270107 50.74713880 4.01601840 8473 393 0 0.56500000 0.56500000 0.56500000
C 14.80952203 50.88813262 4.99626254 8474 393 0 0.56500000 0.56500000 0.56500000
C 14.87378747 52.23178085 5.69267649 8475 393 0 0.56500000 0.56500000 0.56500000
C 13.68634837 52.58295634 6.58766635 8476 393 0 0.56500000 0.56500000 0.56500000
H 14.97072886 48.06426060 0.75597415 8477 393 0 1.00000000 1.00000000 1.00000000
H 13.34776792 47.99081656 1.07120729 8478 393 0 1.00000000 1.00000000 1.00000000
H 14.42636037 47.19026064 2.27190744 8479 393 0 1.00000000 1.00000000 1.00000000
H 13.72753752 48.98832399 3.30598564 8480 393 0 1.00000000 1.00000000 1.00000000
H 13.89247478 50.18451542 2.03638438 8481 393 0 1.00000000 1.00000000 1.00000000
H 16.42037220 49.66690997 2.24381733 8482 393 0 1.00000000 1.00000000 1.00000000
H 15.96924456 48.65324914 3.48334134 8483 393 0 1.00000000 1.00000000 1.00000000
H 15.89022576 51.56755393 3.30721202 8484 393 0 1.00000000 1.00000000 1.00000000
H 16.89145451 50.65887524 4.49301452 8485 393 0 1.00000000 1.00000000 1.00000000
H 14.73865986 50.16587395 5.76376712 8486 393 0 1.00000000 1.00000000 1.00000000
H 13.87918954 50.83023514 4.46441973 8487 393 0 1.00000000 1.00000000 1.00000000
H 14.97877016 52.95192431 4.88341104 8488 393 0 1.00000000 1.00000000 1.00000000
H 15.80904624 52.27577571 6.34627310 8489 393 0 1.00000000 1.00000000 1.00000000
H 13.86941061 53.50756997 7.14599460 8490 393 0 1.00000000 1.00000000 1.00000000
H 13.43229828 51.86422029 7.32707423 8491 393 0 1.00000000 1.00000000 1.00000000
H 12.73746823 52.83595887 6.13268679 8492 393 0 1.00000000 1.00000000 1.00000000
C 32.52729476 15.33354102 12.79361301 8493 394 0 0.56500000 0.56500000 0.56500000
C 31.38612227 15.78999614 11.90283388 8494 394 0 0.56500000 0.56500000 0.56500000
C 31.71271711 15.79153090 10.32972946 8495 394 0 0.56500000 0.56500000 0.56500000
C 32.81901454 16.65131635 9.79267798 8496 394 0 0.56500000 0.56500000 0.56500000
C 32.56841986 18.17620194 10.22260837 8497 394 0 0.56500000 0.56500000 0.56500000
C 33.78564569 19.10488359 9.94825622 8498 394 0 0.56500000 0.56500000 0.56500000
C 34.88849452 18.99175029 10.93385866 8499 394 0 0.56500000 0.56500000 0.56500000
H 32.29957779 15.32521031 13.90115918 8500 394 0 1.00000000 1.00000000 1.00000000
H 33.41450434 15.95779430 12.70817854 8501 394 0 1.00000000 1.00000000 1.00000000
H 32.88942816 14.32610494 12.44859189 8502 394 0 1.00000000 1.00000000 1.00000000
H 31.17050555 16.78186550 12.11837533 8503 394 0 1.00000000 1.00000000 1.00000000
H 30.44886103 15.22637912 12.10028741 8504 394 0 1.00000000 1.00000000 1.00000000
H 30.81152602 16.01827009 9.74165847 8505 394 0 1.00000000 1.00000000 1.00000000
H 31.82245023 14.72475152 10.05441896 8506 394 0 1.00000000 1.00000000 1.00000000
H 32.64046027 16.67763463 8.70532790 8507 394 0 1.00000000 1.00000000 1.00000000
H 33.80803882 16.36755865 10.08270936 8508 394 0 1.00000000 1.00000000 1.00000000
H 32.22560199 18.29777228 11.27099522 8509 394 0 1.00000000 1.00000000 1.00000000
H 31.62475991 18.53020615 9.70204793 8510 394 0 1.00000000 1.00000000 1.00000000
H 33.38618462 20.11308463 9.85847356 8511 394 0 1.00000000 1.00000000 1.00000000
H 34.18135592 18.79042822 8.90697925 8512 394 0 1.00000000 1.00000000 1.00000000
H 34.87586719 17.99858904 11.39282060 8513 394 0 1.00000000 1.00000000 1.00000000
H 34.71916972 19.60644504 11.82011769 8514 394 0 1.00000000 1.00000000 1.00000000
H 35.81956425 19.11010905 10.42321462 8515 394 0 1.00000000 1.00000000 1.00000000
C 12.77013991 34.39229143 40.86553866 8516 395 0 0.56500000 0.56500000 0.56500000
C 13.05994602 33.20532743 41.69409640 8517 395 0 0.56500000 0.56500000 0.56500000
C 13.48489484 31.98735160 40.83865310 8518 395 0 0.56500000 0.56500000 0.56500000
C 13.92521283 30.80925715 41.67392228 8519 395 0 0.56500000 0.56500000 0.56500000
C 13.94031700 29.47560451 40.98287181 8520 395 0 0.56500000 0.56500000 0.56500000
C 14.55999901 28.21691864 41.68141528 8521 395 0 0.56500000 0.56500000 0.56500000
C 14.32136535 27.00793834 40.76364752 8522 395 0 0.56500000 0.56500000 0.56500000
H 12.68324791 35.33126384 41.50622425 8523 395 0 1.00000000 1.00000000 1.00000000
H 11.81037745 34.33696502 40.23226037 8524 395 0 1.00000000 1.00000000 1.00000000
H 13.53705324 34.64106913 40.17039795 8525 395 0 1.00000000 1.00000000 1.00000000
H 12.24872908 33.04901652 42.38318389 8526 395 0 1.00000000 1.00000000 1.00000000
H 13.93218792 33.52276178 42.27557197 8527 395 0 1.00000000 1.00000000 1.00000000
H 14.23429206 32.27011103 40.13838841 8528 395 0 1.00000000 1.00000000 1.00000000
H 12.77196777 31.70898942 40.13549641 8529 395 0 1.00000000 1.00000000 1.00000000
H 13.35774874 30.81720008 42.67396923 8530 395 0 1.00000000 1.00000000 1.00000000
H 14.92109643 31.03385833 42.08733069 8531 395 0 1.00000000 1.00000000 1.00000000
H 14.39677784 29.60778314 39.95960977 8532 395 0 1.00000000 1.00000000 1.00000000
H 12.90895715 29.13778922 40.64931377 8533 395 0 1.00000000 1.00000000 1.00000000
H 14.07084680 28.07805471 42.66064431 8534 395 0 1.00000000 1.00000000 1.00000000
H 15.60593918 28.42450720 41.78844403 8535 395 0 1.00000000 1.00000000 1.00000000
H 14.94683637 26.20939949 41.15787926 8536 395 0 1.00000000 1.00000000 1.00000000
H 14.75523807 27.20555881 39.80259239 8537 395 0 1.00000000 1.00000000 1.00000000
H 13.27640483 26.78932552 40.70018486 8538 395 0 1.00000000 1.00000000 1.00000000
C 13.76929461 48.52371329 29.76675243 8539 396 0 0.56500000 0.56500000 0.56500000
C 14.76806882 49.68479060 30.26485678 8540 396 0 0.56500000 0.56500000 0.56500000
C 15.04179816 49.71883009 31.76168274 8541 396 0 0.56500000 0.56500000 0.56500000
C 16.15664984 50.64611900 32.06840714 8542 396 0 0.56500000 0.56500000 0.56500000
C 16.85480120 50.58402737 33.45458859 8543 396 0 0.56500000 0.56500000 0.56500000
C 17.91330770 51.77685708 33.65138001 8544 396 0 0.56500000 0.56500000 0.56500000
C 18.72372589 51.81253694 34.91621514 8545 396 0 0.56500000 0.56500000 0.56500000
H 13.65253484 48.44554514 28.68616034 8546 396 0 1.00000000 1.00000000 1.00000000
H 12.74081681 48.66350513 30.20267190 8547 396 0 1.00000000 1.00000000 1.00000000
H 14.08101752 47.51987441 30.04295240 8548 396 0 1.00000000 1.00000000 1.00000000
H 14.40325162 50.65066147 29.85385620 8549 396 0 1.00000000 1.00000000 1.00000000
H 15.75177989 49.53599259 29.75680808 8550 396 0 1.00000000 1.00000000 1.00000000
H 15.35017615 48.75414144 31.96808890 8551 396 0 1.00000000 1.00000000 1.00000000
H 14.08103897 49.90625912 32.29385989 8552 396 0 1.00000000 1.00000000 1.00000000
H 15.88667758 51.69484437 31.84699208 8553 396 0 1.00000000 1.00000000 1.00000000
H 16.92732834 50.34647459 31.36934010 8554 396 0 1.00000000 1.00000000 1.00000000
H 17.36748047 49.64761586 33.54944127 8555 396 0 1.00000000 1.00000000 1.00000000
H 16.13317595 50.66858260 34.32040734 8556 396 0 1.00000000 1.00000000 1.00000000
H 17.40396559 52.74071690 33.50331454 8557 396 0 1.00000000 1.00000000 1.00000000
H 18.67048954 51.60224814 32.81384541 8558 396 0 1.00000000 1.00000000 1.00000000
H 19.50592092 52.60257627 34.76683364 8559 396 0 1.00000000 1.00000000 1.00000000
H 19.06512222 50.80321521 35.19403498 8560 396 0 1.00000000 1.00000000 1.00000000
H 18.18897601 52.19267647 35.78815439 8561 396 0 1.00000000 1.00000000 1.00000000
C 26.74894029 34.89990509 -4.23393299 8562 397 0 0.56500000 0.56500000 0.56500000
C 28.20927358 34.60448671 -3.68050389 8563 397 0 0.56500000 0.56500000 0.56500000
C 28.65495818 35.65809330 -2.68456337 8564 397 0 0.56500000 0.56500000 0.56500000
C 29.81775754 35.23406576 -1.82179574 8565 397 0 0.56500000 0.56500000 0.56500000
C 30.42238216 36.41854402 -1.02489459 8566 397 0 0.56500000 0.56500000 0.56500000
C 31.80030247 36.08353157 -0.38408969 8567 397 0 0.56500000 0.56500000 0.56500000
C 32.09460302 37.15521358 0.63136515 8568 397 0 0.56500000 0.56500000 0.56500000
H 25.91809372 34.98889921 -3.49540228 8569 397 0 1.00000000 1.00000000 1.00000000
H 26.40300295 34.06766486 -4.90407275 8570 397 0 1.00000000 1.00000000 1.00000000
H 26.64588458 35.90360430 -4.78171294 8571 397 0 1.00000000 1.00000000 1.00000000
H 28.78790738 34.62234112 -4.63100247 8572 397 0 1.00000000 1.00000000 1.00000000
H 28.16120134 33.60828104 -3.18340037 8573 397 0 1.00000000 1.00000000 1.00000000
H 27.82944192 35.91372942 -2.01718603 8574 397 0 1.00000000 1.00000000 1.00000000
H 28.92090639 36.60070837 -3.17519561 8575 397 0 1.00000000 1.00000000 1.00000000
H 30.63298571 34.85169906 -2.44109071 8576 397 0 1.00000000 1.00000000 1.00000000
H 29.47571386 34.49273217 -1.07556857 8577 397 0 1.00000000 1.00000000 1.00000000
H 29.68100746 36.68963841 -0.21869260 8578 397 0 1.00000000 1.00000000 1.00000000
H 30.39532201 37.38065219 -1.62595357 8579 397 0 1.00000000 1.00000000 1.00000000
H 32.54637704 35.98672525 -1.15917140 8580 397 0 1.00000000 1.00000000 1.00000000
H 31.69455751 35.08429525 0.06603600 8581 397 0 1.00000000 1.00000000 1.00000000
H 32.47295716 38.02043882 0.11415697 8582 397 0 1.00000000 1.00000000 1.00000000
H 32.83799699 36.89742631 1.35162431 8583 397 0 1.00000000 1.00000000 1.00000000
H 31.19042225 37.33685351 1.23377341 8584 397 0 1.00000000 1.00000000 1.00000000
C 28.05218626 40.38470816 31.01035577 8585 398 0 0.56500000 0.56500000 0.56500000
C 29.13097505 39.27529090 31.02043520 8586 398 0 0.56500000 0.56500000 0.56500000
C 30.50503409 39.51572435 31.65698384 8587 398 0 0.56500000 0.56500000 0.56500000
C 31.09194643 40.92985404 31.33462046 8588 398 0 0.56500000 0.56500000 0.56500000
C 32.46951335 41.02489229 31.68383559 8589 398 0 0.56500000 0.56500000 0.56500000
C 33.55456228 40.53975603 30.67749853 8590 398 0 0.56500000 0.56500000 0.56500000
C 34.98920540 40.91276277 31.16998380 8591 398 0 0.56500000 0.56500000 0.56500000
H 28.40797712 41.16713491 30.32616206 8592 398 0 1.00000000 1.00000000 1.00000000
H 27.78230366 40.81076283 31.98822126 8593 398 0 1.00000000 1.00000000 1.00000000
H 27.05396940 39.89015132 30.64556401 8594 398 0 1.00000000 1.00000000 1.00000000
H 29.31460319 39.07652580 29.93983375 8595 398 0 1.00000000 1.00000000 1.00000000
H 28.73672423 38.32744462 31.34586019 8596 398 0 1.00000000 1.00000000 1.00000000
H 31.12753361 38.63515726 31.35374626 8597 398 0 1.00000000 1.00000000 1.00000000
H 30.42512907 39.30947457 32.72297569 8598 398 0 1.00000000 1.00000000 1.00000000
H 30.45538499 41.74988865 31.79728795 8599 398 0 1.00000000 1.00000000 1.00000000
H 30.94042405 41.10064927 30.18099965 8600 398 0 1.00000000 1.00000000 1.00000000
H 32.68277074 40.44864067 32.64010926 8601 398 0 1.00000000 1.00000000 1.00000000
H 32.71953569 42.02623443 31.95193436 8602 398 0 1.00000000 1.00000000 1.00000000
H 33.35443152 41.03795013 29.66808996 8603 398 0 1.00000000 1.00000000 1.00000000
H 33.43795161 39.48518620 30.50673362 8604 398 0 1.00000000 1.00000000 1.00000000
H 35.68451886 40.52093785 30.51522937 8605 398 0 1.00000000 1.00000000 1.00000000
H 35.13975890 40.65062123 32.26750819 8606 398 0 1.00000000 1.00000000 1.00000000
H 35.12408970 41.98000999 31.14174444 8607 398 0 1.00000000 1.00000000 1.00000000
C 50.05925992 45.06885454 27.85855367 8608 399 0 0.56500000 0.56500000 0.56500000
C 50.60777042 45.93899088 28.93378502 8609 399 0 0.56500000 0.56500000 0.56500000
C 49.64372595 45.95663843 30.08843883 8610 399 0 0.56500000 0.56500000 0.56500000
C 50.18909795 46.73114526 31.30155389 8611 399 0 0.56500000 0.56500000 0.56500000
C 49.34612007 46.90168536 32.61502099 8612 399 0 0.56500000 0.56500000 0.56500000
C 48.45472388 48.10661940 32.49162992 8613 399 0 0.56500000 0.56500000 0.56500000
C 47.96781140 48.83899945 33.79929131 8614 399 0 0.56500000 0.56500000 0.56500000
H 50.64678205 44.83942827 26.99184548 8615 399 0 1.00000000 1.00000000 1.00000000
H 49.17215168 45.53844532 27.41787685 8616 399 0 1.00000000 1.00000000 1.00000000
H 49.61588799 44.13005015 28.18511828 8617 399 0 1.00000000 1.00000000 1.00000000
H 50.95064834 46.94364545 28.55594069 8618 399 0 1.00000000 1.00000000 1.00000000
H 51.51239639 45.48393228 29.32420387 8619 399 0 1.00000000 1.00000000 1.00000000
H 49.33343688 44.93198055 30.35182644 8620 399 0 1.00000000 1.00000000 1.00000000
H 48.64775504 46.36869200 29.70392665 8621 399 0 1.00000000 1.00000000 1.00000000
H 50.54044053 47.62178467 30.85107231 8622 399 0 1.00000000 1.00000000 1.00000000
H 51.08239333 46.20348758 31.52714302 8623 399 0 1.00000000 1.00000000 1.00000000
H 50.02399822 47.02429989 33.45647837 8624 399 0 1.00000000 1.00000000 1.00000000
H 48.81182710 45.88480844 32.83045277 8625 399 0 1.00000000 1.00000000 1.00000000
H 47.46707607 47.80730730 31.93664749 8626 399 0 1.00000000 1.00000000 1.00000000
H 49.07958254 48.78028053 31.92145131 8627 399 0 1.00000000 1.00000000 1.00000000
H 47.06668991 48.34817875 34.15251009 8628 399 0 1.00000000 1.00000000 1.00000000
H 47.74729517 49.89984060 33.49516071 8629 399 0 1.00000000 1.00000000 1.00000000
H 48.73376443 49.05500691 34.50952078 8630 399 0 1.00000000 1.00000000 1.00000000
C 6.29780310 32.17489411 35.13460534 8631 400 0 0.56500000 0.56500000 0.56500000
C 6.55608350 33.62175535 35.37177011 8632 400 0 0.56500000 0.56500000 0.56500000
C 7.84449995 34.27963265 34.90520336 8633 400 0 0.56500000 0.56500000 0.56500000
C 7.79308639 35.78351891 35.16049521 8634 400 0 0.56500000 0.56500000 0.56500000
C 9.14041312 36.38063389 34.94994016 8635 400 0 0.56500000 0.56500000 0.56500000
C 9.40101712 37.80571169 35.58215751 8636 400 0 0.56500000 0.56500000 0.56500000
C 10.89885218 38.17731215 35.53005270 8637 400 0 0.56500000 0.56500000 0.56500000
H 7.11711812 31.52964949 35.50793730 8638 400 0 1.00000000 1.00000000 1.00000000
H 6.18150629 32.04008169 34.04611516 8639 400 0 1.00000000 1.00000000 1.00000000
H 5.41222258 31.81093538 35.63319302 8640 400 0 1.00000000 1.00000000 1.00000000
H 6.72323193 33.79641152 36.47528849 8641 400 0 1.00000000 1.00000000 1.00000000
H 5.66296243 34.14864154 35.03513659 8642 400 0 1.00000000 1.00000000 1.00000000
H 8.08567039 34.07743144 33.78450267 8643 400 0 1.00000000 1.00000000 1.00000000
H 8.63565376 33.79005805 35.49544172 8644 400 0 1.00000000 1.00000000 1.00000000
H 7.43758455 36.12055666 36.14902235 8645 400 0 1.00000000 1.00000000 1.00000000
H 7.04984314 36.27216328 34.44289487 8646 400 0 1.00000000 1.00000000 1.00000000
H 9.30981804 36.52188317 33.92873627 8647 400 0 1.00000000 1.00000000 1.00000000
H 9.95353435 35.66153610 35.24915958 8648 400 0 1.00000000 1.00000000 1.00000000
H 9.03418214 37.86850781 36.65882732 8649 400 0 1.00000000 1.00000000 1.00000000
H 8.77130585 38.52237948 34.98787636 8650 400 0 1.00000000 1.00000000 1.00000000
H 11.26797597 37.55473550 36.40713335 8651 400 0 1.00000000 1.00000000 1.00000000
H 11.01105040 39.20742503 35.64105012 8652 400 0 1.00000000 1.00000000 1.00000000
H 11.28389337 37.86062251 34.56733527 8653 400 0 1.00000000 1.00000000 1.00000000
C 28.59090009 45.43850446 34.61418705 8654 401 0 0.56500000 0.56500000 0.56500000
C 27.79755418 45.02555198 33.38605835 8655 401 0 0.56500000 0.56500000 0.56500000
C 27.61938541 43.47301934 33.14445773 8656 401 0 0.56500000 0.56500000 0.56500000
C 26.66913705 42.85371399 34.10573061 8657 401 0 0.56500000 0.56500000 0.56500000
C 26.67034344 41.31462324 33.94442588 8658 401 0 0.56500000 0.56500000 0.56500000
C 25.91414620 40.46389396 34.91467032 8659 401 0 0.56500000 0.56500000 0.56500000
C 26.04219975 39.00924133 34.49460308 8660 401 0 0.56500000 0.56500000 0.56500000
H 28.88480984 46.51539225 34.48456914 8661 401 0 1.00000000 1.00000000 1.00000000
H 29.46642099 44.83193806 34.80532547 8662 401 0 1.00000000 1.00000000 1.00000000
H 27.94807899 45.38511002 35.47234597 8663 401 0 1.00000000 1.00000000 1.00000000
H 28.23108511 45.56942666 32.49979295 8664 401 0 1.00000000 1.00000000 1.00000000
H 26.77635463 45.43061813 33.53089486 8665 401 0 1.00000000 1.00000000 1.00000000
H 28.65637765 43.01895703 33.13534474 8666 401 0 1.00000000 1.00000000 1.00000000
H 27.12976724 43.29275295 32.08904037 8667 401 0 1.00000000 1.00000000 1.00000000
H 25.66263836 43.27905133 34.15542824 8668 401 0 1.00000000 1.00000000 1.00000000
H 26.96605764 43.05048127 35.14888722 8669 401 0 1.00000000 1.00000000 1.00000000
H 27.73484575 41.04976946 33.90972854 8670 401 0 1.00000000 1.00000000 1.00000000
H 26.23465124 41.14992471 32.95055784 8671 401 0 1.00000000 1.00000000 1.00000000
H 24.86320140 40.94826645 34.98676955 8672 401 0 1.00000000 1.00000000 1.00000000
H 26.32604063 40.66740236 35.88487852 8673 401 0 1.00000000 1.00000000 1.00000000
H 25.29932637 38.84110161 33.79928370 8674 401 0 1.00000000 1.00000000 1.00000000
H 25.94962875 38.32311197 35.36774567 8675 401 0 1.00000000 1.00000000 1.00000000
H 27.00980095 38.86131946 34.02134540 8676 401 0 1.00000000 1.00000000 1.00000000
C 26.07059584 17.28663779 3.16159527 8677 402 0 0.56500000 0.56500000 0.56500000
C 25.35544585 16.60700136 4.33114952 8678 402 0 0.56500000 0.56500000 0.56500000
C 24.29527115 15.69603403 3.92092103 8679 402 0 0.56500000 0.56500000 0.56500000
C 23.72938534 14.94078488 5.16338723 8680 402 0 0.56500000 0.56500000 0.56500000
C 24.71357178 13.95315662 5.84689770 8681 402 0 0.56500000 0.56500000 0.56500000
C 25.12864023 12.76975354 4.97545401 8682 402 0 0.56500000 0.56500000 0.56500000
C 25.74983777 11.66303547 5.67778387 8683 402 0 0.56500000 0.56500000 0.56500000
H 25.40387998 17.93551062 2.55551427 8684 402 0 1.00000000 1.00000000 1.00000000
H 26.53742990 16.62151375 2.43185977 8685 402 0 1.00000000 1.00000000 1.00000000
H 27.00917387 17.80949329 3.51405387 8686 402 0 1.00000000 1.00000000 1.00000000
H 25.01254726 17.32071637 5.11836806 8687 402 0 1.00000000 1.00000000 1.00000000
H 26.06711497 15.98244822 4.79205530 8688 402 0 1.00000000 1.00000000 1.00000000
H 24.61476799 14.95556426 3.15230905 8689 402 0 1.00000000 1.00000000 1.00000000
H 23.56243965 16.23863680 3.33940657 8690 402 0 1.00000000 1.00000000 1.00000000
H 22.86273525 14.33920729 4.87643216 8691 402 0 1.00000000 1.00000000 1.00000000
H 23.38712024 15.66340992 5.88778460 8692 402 0 1.00000000 1.00000000 1.00000000
H 24.33653667 13.68166174 6.82143784 8693 402 0 1.00000000 1.00000000 1.00000000
H 25.68545760 14.45646094 6.20003098 8694 402 0 1.00000000 1.00000000 1.00000000
H 25.85002458 13.07029181 4.16440034 8695 402 0 1.00000000 1.00000000 1.00000000
H 24.24255425 12.36213775 4.39592316 8696 402 0 1.00000000 1.00000000 1.00000000
H 25.11825587 11.20434056 6.38745618 8697 402 0 1.00000000 1.00000000 1.00000000
H 26.67131493 11.98408297 6.13162910 8698 402 0 1.00000000 1.00000000 1.00000000
H 25.96755273 10.77524860 4.99462600 8699 402 0 1.00000000 1.00000000 1.00000000
C 20.60667822 8.23653837 21.60005527 8700 403 0 0.56500000 0.56500000 0.56500000
C 21.27993637 7.43640673 20.50131180 8701 403 0 0.56500000 0.56500000 0.56500000
C 20.37334504 6.35065086 19.92523950 8702 403 0 0.56500000 0.56500000 0.56500000
C 21.08518789 5.23595921 19.13602994 8703 403 0 0.56500000 0.56500000 0.56500000
C 20.10590801 4.39071681 18.35500161 8704 403 0 0.56500000 0.56500000 0.56500000
C 20.49767677 3.11213913 17.63702183 8705 403 0 0.56500000 0.56500000 0.56500000
C 21.36333633 3.36916018 16.35171373 8706 403 0 0.56500000 0.56500000 0.56500000
H 19.93856614 7.63638364 22.24070270 8707 403 0 1.00000000 1.00000000 1.00000000
H 20.02380110 9.02026044 21.14514023 8708 403 0 1.00000000 1.00000000 1.00000000
H 21.34184936 8.64129620 22.25723690 8709 403 0 1.00000000 1.00000000 1.00000000
H 22.12125075 6.89067930 20.85883395 8710 403 0 1.00000000 1.00000000 1.00000000
H 21.65325869 8.08896658 19.73554947 8711 403 0 1.00000000 1.00000000 1.00000000
H 19.45235144 6.77524247 19.48224834 8712 403 0 1.00000000 1.00000000 1.00000000
H 20.08279771 5.89395788 20.89861791 8713 403 0 1.00000000 1.00000000 1.00000000
H 21.66619047 4.60366280 19.89941619 8714 403 0 1.00000000 1.00000000 1.00000000
H 21.83184045 5.71812673 18.49716592 8715 403 0 1.00000000 1.00000000 1.00000000
H 19.50883640 5.00059271 17.70986047 8716 403 0 1.00000000 1.00000000 1.00000000
H 19.40045860 4.11399266 19.08166388 8717 403 0 1.00000000 1.00000000 1.00000000
H 19.71214858 2.37982005 17.35622125 8718 403 0 1.00000000 1.00000000 1.00000000
H 21.08303430 2.51491480 18.37411292 8719 403 0 1.00000000 1.00000000 1.00000000
H 21.56332597 2.46261572 15.75789234 8720 403 0 1.00000000 1.00000000 1.00000000
H 22.29467779 3.90474146 16.58192589 8721 403 0 1.00000000 1.00000000 1.00000000
H 20.74003515 4.00660610 15.71950442 8722 403 0 1.00000000 1.00000000 1.00000000
C 45.22869495 4.97385274 35.29375601 8723 404 0 0.56500000 0.56500000 0.56500000
C 44.14450043 5.95714859 35.57929129 8724 404 0 0.56500000 0.56500000 0.56500000
C 44.01165401 6.22126718 37.01578860 8725 404 0 0.56500000 0.56500000 0.56500000
C 42.73504504 7.13574521 37.19351286 8726 404 0 0.56500000 0.56500000 0.56500000
C 42.46222239 7.58665356 38.63686244 8727 404 0 0.56500000 0.56500000 0.56500000
C 41.64076682 8.86558434 38.81358380 8728 404 0 0.56500000 0.56500000 0.56500000
C 40.16586515 8.80597032 38.29657637 8729 404 0 0.56500000 0.56500000 0.56500000
H 46.17559653 5.25531842 35.73996766 8730 404 0 1.00000000 1.00000000 1.00000000
H 45.44601603 4.88945151 34.17847757 8731 404 0 1.00000000 1.00000000 1.00000000
H 44.89827793 4.03439487 35.70875770 8732 404 0 1.00000000 1.00000000 1.00000000
H 43.19576634 5.56159774 35.15516972 8733 404 0 1.00000000 1.00000000 1.00000000
H 44.20713116 6.89918689 35.12254181 8734 404 0 1.00000000 1.00000000 1.00000000
H 45.02534128 6.47043159 37.42074591 8735 404 0 1.00000000 1.00000000 1.00000000
H 43.78661551 5.23578699 37.53718725 8736 404 0 1.00000000 1.00000000 1.00000000
H 41.92433594 6.67889513 36.62274017 8737 404 0 1.00000000 1.00000000 1.00000000
H 42.87166953 8.00418382 36.58302040 8738 404 0 1.00000000 1.00000000 1.00000000
H 43.42443577 7.71555210 39.21054723 8739 404 0 1.00000000 1.00000000 1.00000000
H 41.87663740 6.78749657 39.16257298 8740 404 0 1.00000000 1.00000000 1.00000000
H 42.20265577 9.68506377 38.49017924 8741 404 0 1.00000000 1.00000000 1.00000000
H 41.60958094 9.14872543 39.87042494 8742 404 0 1.00000000 1.00000000 1.00000000
H 39.64784514 9.74675512 38.40119206 8743 404 0 1.00000000 1.00000000 1.00000000
H 39.58354604 8.00028720 38.82745059 8744 404 0 1.00000000 1.00000000 1.00000000
H 40.18577161 8.52564431 37.28911008 8745 404 0 1.00000000 1.00000000 1.00000000
C -0.46157772 47.59734488 16.46924386 8746 405 0 0.56500000 0.56500000 0.56500000
C 0.12618647 46.24584079 16.04489817 8747 405 0 0.56500000 0.56500000 0.56500000
C -1.04731908 45.37853345 15.74213981 8748 405 0 0.56500000 0.56500000 0.56500000
C -0.69494662 43.89516309 15.24032793 8749 405 0 0.56500000 0.56500000 0.56500000
C 0.12637486 43.25485791 16.41296561 8750 405 0 0.56500000 0.56500000 0.56500000
C 0.40228124 41.70839836 16.16181407 8751 405 0 0.56500000 0.56500000 0.56500000
C -0.91935107 40.88299835 16.18886001 8752 405 0 0.56500000 0.56500000 0.56500000
H -0.89608212 47.61699608 17.45623930 8753 405 0 1.00000000 1.00000000 1.00000000
H -1.22802430 48.01504830 15.81996447 8754 405 0 1.00000000 1.00000000 1.00000000
H 0.38054929 48.31659627 16.56641011 8755 405 0 1.00000000 1.00000000 1.00000000
H 0.80164372 45.91647504 16.80262320 8756 405 0 1.00000000 1.00000000 1.00000000
H 0.67100743 46.29998032 15.06345699 8757 405 0 1.00000000 1.00000000 1.00000000
H -1.54375529 45.86157553 14.89916036 8758 405 0 1.00000000 1.00000000 1.00000000
H -1.70741061 45.25842224 16.58940373 8759 405 0 1.00000000 1.00000000 1.00000000
H -0.10347209 43.94037156 14.26886139 8760 405 0 1.00000000 1.00000000 1.00000000
H -1.57547781 43.33762471 15.12383545 8761 405 0 1.00000000 1.00000000 1.00000000
H -0.31488430 43.14651876 17.41159873 8762 405 0 1.00000000 1.00000000 1.00000000
H 1.10491064 43.82428897 16.56473024 8763 405 0 1.00000000 1.00000000 1.00000000
H 0.96135156 41.30914471 16.97503372 8764 405 0 1.00000000 1.00000000 1.00000000
H 1.03616048 41.43087658 15.29039164 8765 405 0 1.00000000 1.00000000 1.00000000
H -1.41899914 40.99233678 15.15118148 8766 405 0 1.00000000 1.00000000 1.00000000
H -1.60643627 41.14906370 16.99059397 8767 405 0 1.00000000 1.00000000 1.00000000
H -0.70437599 39.78565351 16.29238908 8768 405 0 1.00000000 1.00000000 1.00000000
C 13.80976320 15.42407852 27.84295908 8769 406 0 0.56500000 0.56500000 0.56500000
C 15.29441979 15.74375018 28.03371880 8770 406 0 0.56500000 0.56500000 0.56500000
C 16.07184121 15.77638922 26.65612553 8771 406 0 0.56500000 0.56500000 0.56500000
C 17.52655637 16.25752693 26.81927680 8772 406 0 0.56500000 0.56500000 0.56500000
C 18.46825360 16.08165326 25.56464016 8773 406 0 0.56500000 0.56500000 0.56500000
C 17.79765074 16.69129738 24.31199818 8774 406 0 0.56500000 0.56500000 0.56500000
C 17.52324691 18.22494796 24.40720659 8775 406 0 0.56500000 0.56500000 0.56500000
H 13.19025003 15.39350813 28.75823653 8776 406 0 1.00000000 1.00000000 1.00000000
H 13.69677603 14.41422630 27.37021736 8777 406 0 1.00000000 1.00000000 1.00000000
H 13.42352061 16.09516056 27.11069014 8778 406 0 1.00000000 1.00000000 1.00000000
H 15.81831213 14.97564479 28.65333569 8779 406 0 1.00000000 1.00000000 1.00000000
H 15.43113047 16.70527701 28.47682664 8780 406 0 1.00000000 1.00000000 1.00000000
H 15.49070755 16.37416845 25.90196328 8781 406 0 1.00000000 1.00000000 1.00000000
H 15.98454513 14.79260559 26.19776267 8782 406 0 1.00000000 1.00000000 1.00000000
H 17.86700700 15.60880980 27.65779830 8783 406 0 1.00000000 1.00000000 1.00000000
H 17.60129403 17.33588191 27.18617311 8784 406 0 1.00000000 1.00000000 1.00000000
H 18.59945162 15.04530896 25.36194714 8785 406 0 1.00000000 1.00000000 1.00000000
H 19.40519415 16.64373344 25.63760393 8786 406 0 1.00000000 1.00000000 1.00000000
H 16.87182709 16.17651688 23.99353879 8787 406 0 1.00000000 1.00000000 1.00000000
H 18.51528700 16.47267283 23.51321448 8788 406 0 1.00000000 1.00000000 1.00000000
H 16.77593570 18.42277274 25.13149639 8789 406 0 1.00000000 1.00000000 1.00000000
H 17.28479948 18.65266324 23.39891211 8790 406 0 1.00000000 1.00000000 1.00000000
H 18.42071211 18.66421785 24.68761692 8791 406 0 1.00000000 1.00000000 1.00000000
C 38.29733105 51.41594354 25.39661595 8792 407 0 0.56500000 0.56500000 0.56500000
C 36.86083583 51.31803766 24.97671555 8793 407 0 0.56500000 0.56500000 0.56500000
C 35.68944022 51.59817923 26.00867965 8794 407 0 0.56500000 0.56500000 0.56500000
C 34.25517585 51.47110767 25.50750838 8795 407 0 0.56500000 0.56500000 0.56500000
C 33.72906973 50.01551988 25.37608362 8796 407 0 0.56500000 0.56500000 0.56500000
C 32.25044434 49.89215867 24.98039789 8797 407 0 0.56500000 0.56500000 0.56500000
C 31.20716750 50.44455606 26.03158395 8798 407 0 0.56500000 0.56500000 0.56500000
H 38.47766522 50.91259629 26.31342065 8799 407 0 1.00000000 1.00000000 1.00000000
H 38.53744837 52.46930794 25.56575454 8800 407 0 1.00000000 1.00000000 1.00000000
H 38.99773386 50.97658304 24.58288309 8801 407 0 1.00000000 1.00000000 1.00000000
H 36.79600463 50.27955825 24.61188277 8802 407 0 1.00000000 1.00000000 1.00000000
H 36.67016643 52.04340367 24.16700774 8803 407 0 1.00000000 1.00000000 1.00000000
H 35.74347572 52.68022731 26.29215247 8804 407 0 1.00000000 1.00000000 1.00000000
H 35.86045811 51.00829638 26.95777910 8805 407 0 1.00000000 1.00000000 1.00000000
H 34.15821085 52.03708977 24.56457596 8806 407 0 1.00000000 1.00000000 1.00000000
H 33.48009839 51.97805117 26.17282053 8807 407 0 1.00000000 1.00000000 1.00000000
H 33.96426371 49.46515789 26.24600373 8808 407 0 1.00000000 1.00000000 1.00000000
H 34.33701172 49.40690571 24.66023813 8809 407 0 1.00000000 1.00000000 1.00000000
H 32.08398528 48.86506468 24.78038126 8810 407 0 1.00000000 1.00000000 1.00000000
H 32.06218700 50.38358638 24.01252995 8811 407 0 1.00000000 1.00000000 1.00000000
H 31.09718966 51.52115641 26.05025598 8812 407 0 1.00000000 1.00000000 1.00000000
H 31.37673894 49.99505063 27.02077025 8813 407 0 1.00000000 1.00000000 1.00000000
H 30.22138616 50.10029770 25.74128385 8814 407 0 1.00000000 1.00000000 1.00000000
C 14.50874875 22.72229473 36.47083151 8815 408 0 0.56500000 0.56500000 0.56500000
C 13.17367603 23.40021192 36.79117576 8816 408 0 0.56500000 0.56500000 0.56500000
C 11.93630852 22.54172446 36.72038500 8817 408 0 0.56500000 0.56500000 0.56500000
C 10.65759887 23.39298678 37.07890411 8818 408 0 0.56500000 0.56500000 0.56500000
C 9.43783392 22.74766606 36.59146512 8819 408 0 0.56500000 0.56500000 0.56500000
C 8.30767489 23.77967777 36.56298213 8820 408 0 0.56500000 0.56500000 0.56500000
C 6.95054864 23.11441036 36.33290113 8821 408 0 0.56500000 0.56500000 0.56500000
H 14.41873867 22.18761273 35.48607410 8822 408 0 1.00000000 1.00000000 1.00000000
H 14.65668734 21.93795084 37.20134399 8823 408 0 1.00000000 1.00000000 1.00000000
H 15.33624462 23.43569841 36.49369121 8824 408 0 1.00000000 1.00000000 1.00000000
H 13.06654375 24.15909290 36.02774466 8825 408 0 1.00000000 1.00000000 1.00000000
H 13.21328259 23.86741557 37.86976686 8826 408 0 1.00000000 1.00000000 1.00000000
H 11.92082237 21.70835550 37.43230551 8827 408 0 1.00000000 1.00000000 1.00000000
H 11.88065773 22.26809777 35.63874659 8828 408 0 1.00000000 1.00000000 1.00000000
H 10.77754798 24.41023735 36.61442697 8829 408 0 1.00000000 1.00000000 1.00000000
H 10.57308290 23.61883711 38.15933026 8830 408 0 1.00000000 1.00000000 1.00000000
H 9.21916193 21.88849711 37.21634469 8831 408 0 1.00000000 1.00000000 1.00000000
H 9.45298059 22.31626272 35.56587587 8832 408 0 1.00000000 1.00000000 1.00000000
H 8.55373879 24.51449499 35.76944115 8833 408 0 1.00000000 1.00000000 1.00000000
H 8.25382061 24.21888272 37.55234282 8834 408 0 1.00000000 1.00000000 1.00000000
H 6.58578952 22.56991817 37.20359722 8835 408 0 1.00000000 1.00000000 1.00000000
H 7.00370160 22.44490273 35.49911946 8836 408 0 1.00000000 1.00000000 1.00000000
H 6.15668508 23.79034042 36.18447472 8837 408 0 1.00000000 1.00000000 1.00000000
C 9.52498840 36.46806681 -1.50411285 8838 409 0 0.56500000 0.56500000 0.56500000
C 10.01165459 36.12343080 -2.90112590 8839 409 0 0.56500000 0.56500000 0.56500000
C 11.04417277 37.05488091 -3.38176148 8840 409 0 0.56500000 0.56500000 0.56500000
C 12.34841502 36.99066365 -2.61913993 8841 409 0 0.56500000 0.56500000 0.56500000
C 13.45538652 37.90500564 -3.12384630 8842 409 0 0.56500000 0.56500000 0.56500000
C 14.44237159 38.18822530 -2.09706346 8843 409 0 0.56500000 0.56500000 0.56500000
C 14.03269174 39.17165330 -0.99143524 8844 409 0 0.56500000 0.56500000 0.56500000
H 8.60479922 35.94051995 -1.22436688 8845 409 0 1.00000000 1.00000000 1.00000000
H 9.24686042 37.47887745 -1.40093670 8846 409 0 1.00000000 1.00000000 1.00000000
H 10.18284761 36.23013265 -0.68610808 8847 409 0 1.00000000 1.00000000 1.00000000
H 9.19759235 36.27099366 -3.55235502 8848 409 0 1.00000000 1.00000000 1.00000000
H 10.34318506 35.07390661 -2.94422238 8849 409 0 1.00000000 1.00000000 1.00000000
H 10.61444890 38.07910864 -3.32192615 8850 409 0 1.00000000 1.00000000 1.00000000
H 11.28704966 36.85797079 -4.48089629 8851 409 0 1.00000000 1.00000000 1.00000000
H 12.73804758 35.94639752 -2.72891431 8852 409 0 1.00000000 1.00000000 1.00000000
H 12.14150921 37.08846699 -1.56224182 8853 409 0 1.00000000 1.00000000 1.00000000
H 13.00310143 38.90696778 -3.49078869 8854 409 0 1.00000000 1.00000000 1.00000000
H 13.96786612 37.38685314 -3.89358306 8855 409 0 1.00000000 1.00000000 1.00000000
H 15.34350948 38.72110050 -2.66117611 8856 409 0 1.00000000 1.00000000 1.00000000
H 14.81992582 37.20774363 -1.69672050 8857 409 0 1.00000000 1.00000000 1.00000000
H 13.41307341 38.69028650 -0.22039960 8858 409 0 1.00000000 1.00000000 1.00000000
H 13.42439796 39.99763529 -1.39005374 8859 409 0 1.00000000 1.00000000 1.00000000
H 14.83909129 39.65854287 -0.46106002 8860 409 0 1.00000000 1.00000000 1.00000000
C 8.53484490 0.90801818 -1.45545837 8861 410 0 0.56500000 0.56500000 0.56500000
C 7.23775017 0.22529536 -1.26400662 8862 410 0 0.56500000 0.56500000 0.56500000
C 6.10465769 1.13835251 -0.74031022 8863 410 0 0.56500000 0.56500000 0.56500000
C 6.13722257 1.55847102 0.77462141 8864 410 0 0.56500000 0.56500000 0.56500000
C 4.81832036 2.19828832 1.31180835 8865 410 0 0.56500000 0.56500000 0.56500000
C 4.80221936 2.45886158 2.80014648 8866 410 0 0.56500000 0.56500000 0.56500000
C 3.81693968 3.58619468 3.15375094 8867 410 0 0.56500000 0.56500000 0.56500000
H 8.23060835 1.89642364 -1.71543537 8868 410 0 1.00000000 1.00000000 1.00000000
H 9.15420388 0.37942041 -2.19647096 8869 410 0 1.00000000 1.00000000 1.00000000
H 9.01300766 0.97480417 -0.49661437 8870 410 0 1.00000000 1.00000000 1.00000000
H 7.23392924 -0.63712003 -0.54480215 8871 410 0 1.00000000 1.00000000 1.00000000
H 6.87118577 -0.18800810 -2.23679726 8872 410 0 1.00000000 1.00000000 1.00000000
H 5.11925491 0.63191510 -0.86280629 8873 410 0 1.00000000 1.00000000 1.00000000
H 6.11766625 2.03480595 -1.32209046 8874 410 0 1.00000000 1.00000000 1.00000000
H 6.95251803 2.25292290 0.98641965 8875 410 0 1.00000000 1.00000000 1.00000000
H 6.33831835 0.68727117 1.38885507 8876 410 0 1.00000000 1.00000000 1.00000000
H 4.00600692 1.55952296 0.98016726 8877 410 0 1.00000000 1.00000000 1.00000000
H 4.62165408 3.11270804 0.76973091 8878 410 0 1.00000000 1.00000000 1.00000000
H 5.83822603 2.73311782 3.09842210 8879 410 0 1.00000000 1.00000000 1.00000000
H 4.49331422 1.54671342 3.30550772 8880 410 0 1.00000000 1.00000000 1.00000000
H 4.29546484 4.48142914 2.88633323 8881 410 0 1.00000000 1.00000000 1.00000000
H 3.47031723 3.51067118 4.17842909 8882 410 0 1.00000000 1.00000000 1.00000000
H 2.90741249 3.57856272 2.47800487 8883 410 0 1.00000000 1.00000000 1.00000000
C 10.14108539 29.71462518 27.64288898 8884 411 0 0.56500000 0.56500000 0.56500000
C 9.50545560 30.39920648 26.47876981 8885 411 0 0.56500000 0.56500000 0.56500000
C 9.03002096 29.39473858 25.43786404 8886 411 0 0.56500000 0.56500000 0.56500000
C 10.20321359 29.03386977 24.45568299 8887 411 0 0.56500000 0.56500000 0.56500000
C 9.85309553 27.81560297 23.65527893 8888 411 0 0.56500000 0.56500000 0.56500000
C 10.82339589 27.33469548 22.55243097 8889 411 0 0.56500000 0.56500000 0.56500000
C 10.78280467 28.20096221 21.33277696 8890 411 0 0.56500000 0.56500000 0.56500000
H 10.67117927 30.32926833 28.38015208 8891 411 0 1.00000000 1.00000000 1.00000000
H 10.85109951 29.02304878 27.31921913 8892 411 0 1.00000000 1.00000000 1.00000000
H 9.33305574 29.16327671 28.16560236 8893 411 0 1.00000000 1.00000000 1.00000000
H 10.24853686 31.10262170 25.95790876 8894 411 0 1.00000000 1.00000000 1.00000000
H 8.63483126 30.94532907 26.81332183 8895 411 0 1.00000000 1.00000000 1.00000000
H 8.18442186 29.84163341 24.91644875 8896 411 0 1.00000000 1.00000000 1.00000000
H 8.74022194 28.47749020 25.86931861 8897 411 0 1.00000000 1.00000000 1.00000000
H 11.15093324 28.80535584 24.95869487 8898 411 0 1.00000000 1.00000000 1.00000000
H 10.36595496 29.86318763 23.79909065 8899 411 0 1.00000000 1.00000000 1.00000000
H 8.89127472 27.98685605 23.17236226 8900 411 0 1.00000000 1.00000000 1.00000000
H 9.78903809 26.95075708 24.35660802 8901 411 0 1.00000000 1.00000000 1.00000000
H 10.45707910 26.31753173 22.33243810 8902 411 0 1.00000000 1.00000000 1.00000000
H 11.76524877 27.28732152 23.17608205 8903 411 0 1.00000000 1.00000000 1.00000000
H 9.77018904 28.36874202 21.06531199 8904 411 0 1.00000000 1.00000000 1.00000000
H 11.37628676 27.97390909 20.40002466 8905 411 0 1.00000000 1.00000000 1.00000000
H 11.34531031 29.17634026 21.55459250 8906 411 0 1.00000000 1.00000000 1.00000000
C 45.70313991 19.95655981 3.36243085 8907 412 0 0.56500000 0.56500000 0.56500000
C 45.85813338 20.96062816 4.46578794 8908 412 0 0.56500000 0.56500000 0.56500000
C 45.04834109 20.58910779 5.82480068 8909 412 0 0.56500000 0.56500000 0.56500000
C 45.44933655 21.53574031 6.96603483 8910 412 0 0.56500000 0.56500000 0.56500000
C 44.57515457 21.51239213 8.26821580 8911 412 0 0.56500000 0.56500000 0.56500000
C 44.89743501 22.77468815 9.12100517 8912 412 0 0.56500000 0.56500000 0.56500000
C 43.88466336 23.08366173 10.22381312 8913 412 0 0.56500000 0.56500000 0.56500000
H 46.14810082 20.30546625 2.36367333 8914 412 0 1.00000000 1.00000000 1.00000000
H 44.68571204 19.77803537 3.11642364 8915 412 0 1.00000000 1.00000000 1.00000000
H 46.26396761 19.10088280 3.47086203 8916 412 0 1.00000000 1.00000000 1.00000000
H 45.62038020 21.97452665 4.13115309 8917 412 0 1.00000000 1.00000000 1.00000000
H 46.87266378 21.06943627 4.76756211 8918 412 0 1.00000000 1.00000000 1.00000000
H 45.18392798 19.48145127 6.09622756 8919 412 0 1.00000000 1.00000000 1.00000000
H 43.92775184 20.66599857 5.63041205 8920 412 0 1.00000000 1.00000000 1.00000000
H 45.31932958 22.62155064 6.57129861 8921 412 0 1.00000000 1.00000000 1.00000000
H 46.54399377 21.41805550 7.23011842 8922 412 0 1.00000000 1.00000000 1.00000000
H 44.75872879 20.63575835 8.88359003 8923 412 0 1.00000000 1.00000000 1.00000000
H 43.51197237 21.54123387 7.97583256 8924 412 0 1.00000000 1.00000000 1.00000000
H 45.03803525 23.65731100 8.46147750 8925 412 0 1.00000000 1.00000000 1.00000000
H 45.86537145 22.58511816 9.60154571 8926 412 0 1.00000000 1.00000000 1.00000000
H 44.38711938 23.94696789 10.76782381 8927 412 0 1.00000000 1.00000000 1.00000000
H 43.78721817 22.24396309 10.88098608 8928 412 0 1.00000000 1.00000000 1.00000000
H 42.89173221 23.45486189 9.88854077 8929 412 0 1.00000000 1.00000000 1.00000000
C 49.05343409 41.43925174 32.78359922 8930 413 0 0.56500000 0.56500000 0.56500000
C 48.70705666 39.96861619 33.08247890 8931 413 0 0.56500000 0.56500000 0.56500000
C 48.73603590 39.65670317 34.57053434 8932 413 0 0.56500000 0.56500000 0.56500000
C 48.31999217 38.23786050 34.91893915 8933 413 0 0.56500000 0.56500000 0.56500000
C 48.29348907 38.14933815 36.40128603 8934 413 0 0.56500000 0.56500000 0.56500000
C 48.48344434 36.75693112 36.94250909 8935 413 0 0.56500000 0.56500000 0.56500000
C 48.09829936 36.63163329 38.41903674 8936 413 0 0.56500000 0.56500000 0.56500000
H 50.04482249 41.49052624 33.16528614 8937 413 0 1.00000000 1.00000000 1.00000000
H 48.36755549 42.19928774 33.21599021 8938 413 0 1.00000000 1.00000000 1.00000000
H 49.18467236 41.77962135 31.81388188 8939 413 0 1.00000000 1.00000000 1.00000000
H 49.35718066 39.34014179 32.46225008 8940 413 0 1.00000000 1.00000000 1.00000000
H 47.67968651 39.82454019 32.75219348 8941 413 0 1.00000000 1.00000000 1.00000000
H 48.01419693 40.33028774 35.03119629 8942 413 0 1.00000000 1.00000000 1.00000000
H 49.63378952 39.98796081 35.03921246 8943 413 0 1.00000000 1.00000000 1.00000000
H 49.06639509 37.55549954 34.53957415 8944 413 0 1.00000000 1.00000000 1.00000000
H 47.31720817 38.04163123 34.38648952 8945 413 0 1.00000000 1.00000000 1.00000000
H 47.31786269 38.45529420 36.69249104 8946 413 0 1.00000000 1.00000000 1.00000000
H 48.87207107 38.89958260 36.88910430 8947 413 0 1.00000000 1.00000000 1.00000000
H 49.56746097 36.54692494 36.86612458 8948 413 0 1.00000000 1.00000000 1.00000000
H 48.01852743 35.94631263 36.39854132 8949 413 0 1.00000000 1.00000000 1.00000000
H 48.29498816 35.57254632 38.72878547 8950 413 0 1.00000000 1.00000000 1.00000000
H 47.06074602 36.90504441 38.55004125 8951 413 0 1.00000000 1.00000000 1.00000000
H 48.62602827 37.23943610 39.13958281 8952 413 0 1.00000000 1.00000000 1.00000000
C 20.59882939 27.65209397 2.54788523 8953 414 0 0.56500000 0.56500000 0.56500000
C 19.99055753 27.31788914 3.85746360 8954 414 0 0.56500000 0.56500000 0.56500000
C 20.30717575 25.88689375 4.34690064 8955 414 0 0.56500000 0.56500000 0.56500000
C 21.76871101 25.73845060 4.77056772 8956 414 0 0.56500000 0.56500000 0.56500000
C 22.20257630 24.24491505 5.05274055 8957 414 0 0.56500000 0.56500000 0.56500000
C 23.67994542 24.13346191 5.37600471 8958 414 0 0.56500000 0.56500000 0.56500000
C 24.22024833 22.70400207 5.60749266 8959 414 0 0.56500000 0.56500000 0.56500000
H 20.42570260 28.71129869 2.51233183 8960 414 0 1.00000000 1.00000000 1.00000000
H 20.15071887 27.13494958 1.62270927 8961 414 0 1.00000000 1.00000000 1.00000000
H 21.73106328 27.42751459 2.46515140 8962 414 0 1.00000000 1.00000000 1.00000000
H 18.91152645 27.46935970 3.69182585 8963 414 0 1.00000000 1.00000000 1.00000000
H 20.17375407 28.00045989 4.63063894 8964 414 0 1.00000000 1.00000000 1.00000000
H 19.96607340 25.19869036 3.56982596 8965 414 0 1.00000000 1.00000000 1.00000000
H 19.72281515 25.69695088 5.26871286 8966 414 0 1.00000000 1.00000000 1.00000000
H 22.06184319 26.38758256 5.63425020 8967 414 0 1.00000000 1.00000000 1.00000000
H 22.41487444 26.03640828 3.95848516 8968 414 0 1.00000000 1.00000000 1.00000000
H 22.11515840 23.77719340 4.08466448 8969 414 0 1.00000000 1.00000000 1.00000000
H 21.50909388 23.70445494 5.77719248 8970 414 0 1.00000000 1.00000000 1.00000000
H 23.88926154 24.74713223 6.25636622 8971 414 0 1.00000000 1.00000000 1.00000000
H 24.24121183 24.41907677 4.41014060 8972 414 0 1.00000000 1.00000000 1.00000000
H 25.29719410 22.66252910 5.39316167 8973 414 0 1.00000000 1.00000000 1.00000000
H 23.69946847 21.99070750 4.96448545 8974 414 0 1.00000000 1.00000000 1.00000000
H 24.14543700 22.42069634 6.63418596 8975 414 0 1.00000000 1.00000000 1.00000000
C 20.87144121 6.56541040 31.07660248 8976 415 0 0.56500000 0.56500000 0.56500000
C 19.80423533 5.67689177 31.65877038 8977 415 0 0.56500000 0.56500000 0.56500000
C 18.77803106 5.17150650 30.54381336 8978 415 0 0.56500000 0.56500000 0.56500000
C 18.17320008 6.35543854 29.85751320 8979 415 0 0.56500000 0.56500000 0.56500000
C 16.79070051 6.09937480 29.24414417 8980 415 0 0.56500000 0.56500000 0.56500000
C 16.22053200 7.48504449 28.83494551 8981 415 0 0.56500000 0.56500000 0.56500000
C 15.36524773 8.16517691 29.87138744 8982 415 0 0.56500000 0.56500000 0.56500000
H 20.43615064 7.48484966 30.62387099 8983 415 0 1.00000000 1.00000000 1.00000000
H 21.46658538 5.99469775 30.27880997 8984 415 0 1.00000000 1.00000000 1.00000000
H 21.47674907 6.82772756 31.93108950 8985 415 0 1.00000000 1.00000000 1.00000000
H 19.31957965 6.28072121 32.44084338 8986 415 0 1.00000000 1.00000000 1.00000000
H 20.18054052 4.75794747 32.20573844 8987 415 0 1.00000000 1.00000000 1.00000000
H 18.15298329 4.44002724 30.90189191 8988 415 0 1.00000000 1.00000000 1.00000000
H 19.44665852 4.71869800 29.88973971 8989 415 0 1.00000000 1.00000000 1.00000000
H 18.88695115 6.76856770 29.14663236 8990 415 0 1.00000000 1.00000000 1.00000000
H 18.10723387 7.17547200 30.55546408 8991 415 0 1.00000000 1.00000000 1.00000000
H 16.11934653 5.46400757 29.84289705 8992 415 0 1.00000000 1.00000000 1.00000000
H 16.97792609 5.45880870 28.26905244 8993 415 0 1.00000000 1.00000000 1.00000000
H 15.50111091 7.39757040 27.96609949 8994 415 0 1.00000000 1.00000000 1.00000000
H 17.01832781 8.17850602 28.54917366 8995 415 0 1.00000000 1.00000000 1.00000000
H 14.75112365 9.02064248 29.42815111 8996 415 0 1.00000000 1.00000000 1.00000000
H 16.03449965 8.55717443 30.68733279 8997 415 0 1.00000000 1.00000000 1.00000000
H 14.65208899 7.39542827 30.36394552 8998 415 0 1.00000000 1.00000000 1.00000000
C 35.86359805 31.54028830 0.58519061 8999 416 0 0.56500000 0.56500000 0.56500000
C 34.64482535 32.33976272 0.88416213 9000 416 0 0.56500000 0.56500000 0.56500000
C 34.72377965 33.03539265 2.25640325 9001 416 0 0.56500000 0.56500000 0.56500000
C 34.79649398 32.10269172 3.39230437 9002 416 0 0.56500000 0.56500000 0.56500000
C 34.67693786 32.73118956 4.79404568 9003 416 0 0.56500000 0.56500000 0.56500000
C 33.19871184 32.88627096 5.22387403 9004 416 0 0.56500000 0.56500000 0.56500000
C 33.05722485 33.37481286 6.67901201 9005 416 0 0.56500000 0.56500000 0.56500000
H 35.89662088 30.50184144 0.92704762 9006 416 0 1.00000000 1.00000000 1.00000000
H 36.82127852 32.00733964 0.80376975 9007 416 0 1.00000000 1.00000000 1.00000000
H 35.85349078 31.40528840 -0.52890657 9008 416 0 1.00000000 1.00000000 1.00000000
H 33.81431046 31.71030823 0.85809681 9009 416 0 1.00000000 1.00000000 1.00000000
H 34.46293342 33.02670201 0.08092353 9010 416 0 1.00000000 1.00000000 1.00000000
H 33.80113325 33.69577992 2.31470191 9011 416 0 1.00000000 1.00000000 1.00000000
H 35.54115389 33.78236628 2.30915716 9012 416 0 1.00000000 1.00000000 1.00000000
H 35.70064074 31.52278117 3.22400203 9013 416 0 1.00000000 1.00000000 1.00000000
H 33.85789454 31.43453336 3.45561906 9014 416 0 1.00000000 1.00000000 1.00000000
H 35.18838732 33.71022211 4.74620226 9015 416 0 1.00000000 1.00000000 1.00000000
H 35.17652357 31.99890674 5.48493166 9016 416 0 1.00000000 1.00000000 1.00000000
H 32.74382683 31.88957142 5.21893383 9017 416 0 1.00000000 1.00000000 1.00000000
H 32.67387492 33.52199218 4.51317967 9018 416 0 1.00000000 1.00000000 1.00000000
H 33.69417222 32.74957546 7.35143620 9019 416 0 1.00000000 1.00000000 1.00000000
H 32.06963032 33.12377384 7.06612813 9020 416 0 1.00000000 1.00000000 1.00000000
H 33.37069749 34.38552523 6.86214525 9021 416 0 1.00000000 1.00000000 1.00000000
C 30.80315507 20.01843434 34.19396644 9022 417 0 0.56500000 0.56500000 0.56500000
C 30.63203257 21.02112882 33.05881698 9023 417 0 0.56500000 0.56500000 0.56500000
C 29.16947260 21.02622122 32.64680943 9024 417 0 0.56500000 0.56500000 0.56500000
C 28.77676309 22.00203368 31.48937936 9025 417 0 0.56500000 0.56500000 0.56500000
C 29.03306304 23.45823713 31.86043197 9026 417 0 0.56500000 0.56500000 0.56500000
C 28.06940369 24.36910891 31.21212726 9027 417 0 0.56500000 0.56500000 0.56500000
C 26.62432512 24.28208943 31.71161395 9028 417 0 0.56500000 0.56500000 0.56500000
H 30.33610597 18.99702324 33.99296582 9029 417 0 1.00000000 1.00000000 1.00000000
H 30.16699105 20.45670425 34.95969704 9030 417 0 1.00000000 1.00000000 1.00000000
H 31.78488745 19.85498426 34.69974559 9031 417 0 1.00000000 1.00000000 1.00000000
H 31.26074938 20.76284270 32.09082999 9032 417 0 1.00000000 1.00000000 1.00000000
H 31.07991463 21.97722176 33.40781147 9033 417 0 1.00000000 1.00000000 1.00000000
H 28.62830814 21.25065086 33.55125900 9034 417 0 1.00000000 1.00000000 1.00000000
H 28.86499354 20.06210084 32.24305405 9035 417 0 1.00000000 1.00000000 1.00000000
H 27.77053259 21.88240561 31.17717185 9036 417 0 1.00000000 1.00000000 1.00000000
H 29.36617786 21.70316100 30.63600381 9037 417 0 1.00000000 1.00000000 1.00000000
H 30.05429954 23.72009037 31.60755798 9038 417 0 1.00000000 1.00000000 1.00000000
H 28.89456584 23.54530637 32.91650776 9039 417 0 1.00000000 1.00000000 1.00000000
H 28.00762216 24.30927847 30.11430387 9040 417 0 1.00000000 1.00000000 1.00000000
H 28.31679693 25.43339923 31.32975650 9041 417 0 1.00000000 1.00000000 1.00000000
H 26.03267900 25.08102847 31.22295146 9042 417 0 1.00000000 1.00000000 1.00000000
H 26.68833215 24.50920435 32.79660790 9043 417 0 1.00000000 1.00000000 1.00000000
H 26.24783529 23.27544881 31.50457213 9044 417 0 1.00000000 1.00000000 1.00000000
C 18.73361682 23.44217067 22.30620335 9045 418 0 0.56500000 0.56500000 0.56500000
C 19.05387518 24.85323225 22.67347075 9046 418 0 0.56500000 0.56500000 0.56500000
C 17.77899368 25.69366957 23.16274901 9047 418 0 0.56500000 0.56500000 0.56500000
C 16.81307792 25.84652016 22.03062588 9048 418 0 0.56500000 0.56500000 0.56500000
C 15.53472866 26.63784652 22.44044825 9049 418 0 0.56500000 0.56500000 0.56500000
C 15.79077729 28.14645379 22.41825443 9050 418 0 0.56500000 0.56500000 0.56500000
C 14.46019248 28.95128010 22.75255185 9051 418 0 0.56500000 0.56500000 0.56500000
H 19.60653655 22.79434196 21.97598168 9052 418 0 1.00000000 1.00000000 1.00000000
H 17.99732396 23.32815312 21.47959030 9053 418 0 1.00000000 1.00000000 1.00000000
H 18.27626454 22.90806761 23.16615401 9054 418 0 1.00000000 1.00000000 1.00000000
H 19.36810453 25.34912093 21.79997580 9055 418 0 1.00000000 1.00000000 1.00000000
H 19.81323202 24.92997383 23.45031578 9056 418 0 1.00000000 1.00000000 1.00000000
H 18.20458227 26.64616786 23.60875574 9057 418 0 1.00000000 1.00000000 1.00000000
H 17.30054588 25.05440383 23.97493166 9058 418 0 1.00000000 1.00000000 1.00000000
H 16.47966801 24.92034870 21.60956668 9059 418 0 1.00000000 1.00000000 1.00000000
H 17.28190329 26.31113538 21.13948083 9060 418 0 1.00000000 1.00000000 1.00000000
H 15.19203147 26.25360902 23.38940967 9061 418 0 1.00000000 1.00000000 1.00000000
H 14.81025261 26.47190483 21.66411050 9062 418 0 1.00000000 1.00000000 1.00000000
H 16.00714135 28.38106539 21.32047781 9063 418 0 1.00000000 1.00000000 1.00000000
H 16.67414777 28.51671073 22.97311090 9064 418 0 1.00000000 1.00000000 1.00000000
H 14.44780944 30.04510697 22.60651566 9065 418 0 1.00000000 1.00000000 1.00000000
H 14.25291785 28.79902835 23.81939976 9066 418 0 1.00000000 1.00000000 1.00000000
H 13.61254363 28.66860425 22.11193254 9067 418 0 1.00000000 1.00000000 1.00000000
C 35.32603955 9.58411819 22.63518368 9068 419 0 0.56500000 0.56500000 0.56500000
C 36.25098330 9.13893623 21.50012880 9069 419 0 0.56500000 0.56500000 0.56500000
C 37.50008872 9.90349767 21.47001732 9070 419 0 0.56500000 0.56500000 0.56500000
C 38.51951076 9.38092122 20.41823096 9071 419 0 0.56500000 0.56500000 0.56500000
C 38.10034600 9.40136841 18.96158892 9072 419 0 0.56500000 0.56500000 0.56500000
C 39.15885256 8.86761608 18.02250932 9073 419 0 0.56500000 0.56500000 0.56500000
C 40.51671969 9.55871041 18.29132798 9074 419 0 0.56500000 0.56500000 0.56500000
H 35.26591114 10.67698451 22.44374070 9075 419 0 1.00000000 1.00000000 1.00000000
H 35.69648193 9.39234158 23.65022883 9076 419 0 1.00000000 1.00000000 1.00000000
H 34.37793497 9.08709631 22.53063611 9077 419 0 1.00000000 1.00000000 1.00000000
H 35.65630442 9.26211533 20.52624810 9078 419 0 1.00000000 1.00000000 1.00000000
H 36.54948127 8.04647334 21.65147473 9079 419 0 1.00000000 1.00000000 1.00000000
H 38.00493843 9.79840296 22.51906452 9080 419 0 1.00000000 1.00000000 1.00000000
H 37.27322217 10.95418036 21.40181351 9081 419 0 1.00000000 1.00000000 1.00000000
H 38.77299866 8.32183594 20.65827847 9082 419 0 1.00000000 1.00000000 1.00000000
H 39.40783172 9.92949387 20.52249701 9083 419 0 1.00000000 1.00000000 1.00000000
H 37.85938873 10.41968343 18.68081650 9084 419 0 1.00000000 1.00000000 1.00000000
H 37.20815785 8.82346226 18.74497848 9085 419 0 1.00000000 1.00000000 1.00000000
H 38.84000419 8.87894543 16.99407660 9086 419 0 1.00000000 1.00000000 1.00000000
H 39.29683933 7.74912854 18.17490081 9087 419 0 1.00000000 1.00000000 1.00000000
H 40.96504289 9.17808387 19.21273813 9088 419 0 1.00000000 1.00000000 1.00000000
H 40.28634151 10.62212267 18.26674806 9089 419 0 1.00000000 1.00000000 1.00000000
H 41.24392379 9.40277522 17.50076425 9090 419 0 1.00000000 1.00000000 1.00000000
C 28.57841396 6.94820896 42.96099252 9091 420 0 0.56500000 0.56500000 0.56500000
C 28.08019158 6.18004528 41.71098605 9092 420 0 0.56500000 0.56500000 0.56500000
C 29.17226551 5.96924719 40.69398103 9093 420 0 0.56500000 0.56500000 0.56500000
C 28.68856965 5.39141090 39.35024882 9094 420 0 0.56500000 0.56500000 0.56500000
C 29.77260897 5.45183133 38.31921061 9095 420 0 0.56500000 0.56500000 0.56500000
C 30.26407164 6.79617018 38.03700498 9096 420 0 0.56500000 0.56500000 0.56500000
C 31.34829627 6.88780879 36.99375910 9097 420 0 0.56500000 0.56500000 0.56500000
H 29.23292378 7.86807034 42.79232612 9098 420 0 1.00000000 1.00000000 1.00000000
H 29.33409130 6.34388462 43.54987364 9099 420 0 1.00000000 1.00000000 1.00000000
H 27.80489092 7.13633463 43.66922165 9100 420 0 1.00000000 1.00000000 1.00000000
H 27.21640937 6.65880029 41.24547525 9101 420 0 1.00000000 1.00000000 1.00000000
H 27.76482396 5.25375092 42.13880198 9102 420 0 1.00000000 1.00000000 1.00000000
H 29.80246866 5.25142128 41.14769886 9103 420 0 1.00000000 1.00000000 1.00000000
H 29.74728195 6.83793687 40.47372622 9104 420 0 1.00000000 1.00000000 1.00000000
H 27.83945268 5.98659404 39.04111255 9105 420 0 1.00000000 1.00000000 1.00000000
H 28.27658204 4.38390172 39.50579362 9106 420 0 1.00000000 1.00000000 1.00000000
H 29.36416268 5.05623356 37.36528154 9107 420 0 1.00000000 1.00000000 1.00000000
H 30.61434252 4.74342273 38.50464310 9108 420 0 1.00000000 1.00000000 1.00000000
H 30.57496054 7.28240407 38.94109652 9109 420 0 1.00000000 1.00000000 1.00000000
H 29.42471250 7.39340289 37.69419423 9110 420 0 1.00000000 1.00000000 1.00000000
H 32.33351293 6.48302447 37.35577996 9111 420 0 1.00000000 1.00000000 1.00000000
H 31.72239137 7.89226217 36.83898478 9112 420 0 1.00000000 1.00000000 1.00000000
H 31.10983325 6.45424562 36.00494018 9113 420 0 1.00000000 1.00000000 1.00000000
C 34.74580107 39.84930199 9.33456817 9114 421 0 0.56500000 0.56500000 0.56500000
C 35.11160321 40.86554287 8.28663114 9115 421 0 0.56500000 0.56500000 0.56500000
C 36.23251087 41.74153386 8.76871723 9116 421 0 0.56500000 0.56500000 0.56500000
C 36.62903021 42.83796235 7.78046019 9117 421 0 0.56500000 0.56500000 0.56500000
C 37.59457023 43.97902266 8.25747692 9118 421 0 0.56500000 0.56500000 0.56500000
C 38.17827847 44.92184033 7.22930941 9119 421 0 0.56500000 0.56500000 0.56500000
C 39.64850469 44.56419730 7.00635196 9120 421 0 0.56500000 0.56500000 0.56500000
H 35.60114798 39.26174003 9.68170171 9121 421 0 1.00000000 1.00000000 1.00000000
H 34.09778465 39.06583010 8.89930822 9122 421 0 1.00000000 1.00000000 1.00000000
H 34.27574741 40.33047817 10.21606844 9123 421 0 1.00000000 1.00000000 1.00000000
H 34.23786452 41.36483833 8.23464066 9124 421 0 1.00000000 1.00000000 1.00000000
H 35.28153532 40.32617630 7.34440850 9125 421 0 1.00000000 1.00000000 1.00000000
H 37.06427321 41.04277912 9.00424891 9126 421 0 1.00000000 1.00000000 1.00000000
H 35.95750926 42.37252642 9.62317639 9127 421 0 1.00000000 1.00000000 1.00000000
H 35.65641518 43.25912734 7.41233489 9128 421 0 1.00000000 1.00000000 1.00000000
H 37.01460937 42.39324664 6.79976409 9129 421 0 1.00000000 1.00000000 1.00000000
H 38.39638370 43.48350651 8.80331307 9130 421 0 1.00000000 1.00000000 1.00000000
H 36.98217733 44.52197570 9.01559722 9131 421 0 1.00000000 1.00000000 1.00000000
H 38.20523574 45.91105997 7.59557978 9132 421 0 1.00000000 1.00000000 1.00000000
H 37.61264738 44.87147713 6.25427203 9133 421 0 1.00000000 1.00000000 1.00000000
H 40.22165092 44.63417692 7.90952191 9134 421 0 1.00000000 1.00000000 1.00000000
H 40.06575777 45.17279052 6.22406521 9135 421 0 1.00000000 1.00000000 1.00000000
H 39.78223317 43.54833558 6.54292438 9136 421 0 1.00000000 1.00000000 1.00000000
C 31.87302263 29.17841447 -8.90853760 9137 422 0 0.56500000 0.56500000 0.56500000
C 30.72503722 29.67598306 -8.04442427 9138 422 0 0.56500000 0.56500000 0.56500000
C 31.28115020 30.29685340 -6.68854384 9139 422 0 0.56500000 0.56500000 0.56500000
C 31.86802359 31.73913904 -6.81294421 9140 422 0 0.56500000 0.56500000 0.56500000
C 32.63514762 32.10229378 -5.57826494 9141 422 0 0.56500000 0.56500000 0.56500000
C 31.85175934 32.21195648 -4.30712653 9142 422 0 0.56500000 0.56500000 0.56500000
C 32.79617877 32.47244031 -3.12228897 9143 422 0 0.56500000 0.56500000 0.56500000
H 32.39920113 28.36796046 -8.38168532 9144 422 0 1.00000000 1.00000000 1.00000000
H 32.63414222 30.00703062 -9.00772701 9145 422 0 1.00000000 1.00000000 1.00000000
H 31.49783007 28.80935883 -9.87866792 9146 422 0 1.00000000 1.00000000 1.00000000
H 30.18788443 28.73305825 -7.88437416 9147 422 0 1.00000000 1.00000000 1.00000000
H 30.08706943 30.37368968 -8.63598251 9148 422 0 1.00000000 1.00000000 1.00000000
H 32.09193537 29.64622787 -6.36961034 9149 422 0 1.00000000 1.00000000 1.00000000
H 30.48704973 30.16389743 -5.96528424 9150 422 0 1.00000000 1.00000000 1.00000000
H 31.11386018 32.45051477 -7.14550056 9151 422 0 1.00000000 1.00000000 1.00000000
H 32.52516818 31.82703341 -7.74328448 9152 422 0 1.00000000 1.00000000 1.00000000
H 33.29305110 32.97818306 -5.70571475 9153 422 0 1.00000000 1.00000000 1.00000000
H 33.38704027 31.30750764 -5.46000681 9154 422 0 1.00000000 1.00000000 1.00000000
H 31.23058491 31.36408602 -4.03248382 9155 422 0 1.00000000 1.00000000 1.00000000
H 31.10498643 33.02825902 -4.29378054 9156 422 0 1.00000000 1.00000000 1.00000000
H 33.71912641 31.73870265 -3.13505815 9157 422 0 1.00000000 1.00000000 1.00000000
H 32.33150287 32.52290851 -2.06375899 9158 422 0 1.00000000 1.00000000 1.00000000
H 33.33482910 33.41767619 -3.26588022 9159 422 0 1.00000000 1.00000000 1.00000000
C 14.78090640 48.55372994 38.28072311 9160 423 0 0.56500000 0.56500000 0.56500000
C 15.56401713 48.38240522 36.97632225 9161 423 0 0.56500000 0.56500000 0.56500000
C 14.71271141 48.04133105 35.74536420 9162 423 0 0.56500000 0.56500000 0.56500000
C 14.03524175 46.70229796 35.81147740 9163 423 0 0.56500000 0.56500000 0.56500000
C 13.41342457 46.13329783 34.57011535 9164 423 0 0.56500000 0.56500000 0.56500000
C 12.27981116 46.89334272 33.89653124 9165 423 0 0.56500000 0.56500000 0.56500000
C 11.09185102 47.23276356 34.82839946 9166 423 0 0.56500000 0.56500000 0.56500000
H 15.37887798 48.74541986 39.18455460 9167 423 0 1.00000000 1.00000000 1.00000000
H 14.19265415 47.61854222 38.49725151 9168 423 0 1.00000000 1.00000000 1.00000000
H 14.01555794 49.24198188 38.13743454 9169 423 0 1.00000000 1.00000000 1.00000000
H 16.35548012 47.58804153 37.14501268 9170 423 0 1.00000000 1.00000000 1.00000000
H 16.07459663 49.32940429 36.78481383 9171 423 0 1.00000000 1.00000000 1.00000000
H 15.38911297 47.97571359 34.82347162 9172 423 0 1.00000000 1.00000000 1.00000000
H 13.95266764 48.85082171 35.56430061 9173 423 0 1.00000000 1.00000000 1.00000000
H 13.18794426 46.71402293 36.54759740 9174 423 0 1.00000000 1.00000000 1.00000000
H 14.80408713 46.03375726 36.24068216 9175 423 0 1.00000000 1.00000000 1.00000000
H 12.94240731 45.11180985 34.80930347 9176 423 0 1.00000000 1.00000000 1.00000000
H 14.20594330 45.86440923 33.82991068 9177 423 0 1.00000000 1.00000000 1.00000000
H 11.92818458 46.26061974 33.05908340 9178 423 0 1.00000000 1.00000000 1.00000000
H 12.72777298 47.82126024 33.41766769 9179 423 0 1.00000000 1.00000000 1.00000000
H 10.89498366 46.44025652 35.55307770 9180 423 0 1.00000000 1.00000000 1.00000000
H 10.11294509 47.40318490 34.26619586 9181 423 0 1.00000000 1.00000000 1.00000000
H 11.22789767 48.11803592 35.43130510 9182 423 0 1.00000000 1.00000000 1.00000000
C 9.15301498 38.56212573 46.13628502 9183 424 0 0.56500000 0.56500000 0.56500000
C 10.70211020 38.81305138 46.00080660 9184 424 0 0.56500000 0.56500000 0.56500000
C 11.09800315 40.32083264 45.98046479 9185 424 0 0.56500000 0.56500000 0.56500000
C 11.21365950 40.91851974 44.59946206 9186 424 0 0.56500000 0.56500000 0.56500000
C 11.59728510 42.45607557 44.62386326 9187 424 0 0.56500000 0.56500000 0.56500000
C 10.74435287 43.31550791 45.53565402 9188 424 0 0.56500000 0.56500000 0.56500000
C 9.35686080 43.67627642 45.12506864 9189 424 0 0.56500000 0.56500000 0.56500000
H 8.70463405 39.23949821 46.86198628 9190 424 0 1.00000000 1.00000000 1.00000000
H 8.84920140 37.55766785 46.33745738 9191 424 0 1.00000000 1.00000000 1.00000000
H 8.74485533 38.91942510 45.19857537 9192 424 0 1.00000000 1.00000000 1.00000000
H 11.18598939 38.30440473 45.11735342 9193 424 0 1.00000000 1.00000000 1.00000000
H 11.27961195 38.46559448 46.85245940 9194 424 0 1.00000000 1.00000000 1.00000000
H 12.02037859 40.48642307 46.45601485 9195 424 0 1.00000000 1.00000000 1.00000000
H 10.35527748 40.85138779 46.62535493 9196 424 0 1.00000000 1.00000000 1.00000000
H 10.18478677 40.92363826 44.11618559 9197 424 0 1.00000000 1.00000000 1.00000000
H 11.96420527 40.46230951 43.93343192 9198 424 0 1.00000000 1.00000000 1.00000000
H 11.48366609 42.85214051 43.57792519 9199 424 0 1.00000000 1.00000000 1.00000000
H 12.67206718 42.63602373 45.04982513 9200 424 0 1.00000000 1.00000000 1.00000000
H 11.24540003 44.26669868 45.61420916 9201 424 0 1.00000000 1.00000000 1.00000000
H 10.69743258 42.91967109 46.58390890 9202 424 0 1.00000000 1.00000000 1.00000000
H 8.74225888 42.81861677 44.86043814 9203 424 0 1.00000000 1.00000000 1.00000000
H 9.37650921 44.22126835 44.18602708 9204 424 0 1.00000000 1.00000000 1.00000000
H 8.85990062 44.17907941 45.88853362 9205 424 0 1.00000000 1.00000000 1.00000000
C 18.77808019 13.27451057 22.83918323 9206 425 0 0.56500000 0.56500000 0.56500000
C 20.18699692 13.32756716 22.37490323 9207 425 0 0.56500000 0.56500000 0.56500000
C 21.00649954 12.14208282 23.01540109 9208 425 0 0.56500000 0.56500000 0.56500000
C 22.51357928 12.20214588 22.86646913 9209 425 0 0.56500000 0.56500000 0.56500000
C 23.16701501 10.96563853 23.38583685 9210 425 0 0.56500000 0.56500000 0.56500000
C 24.66179127 10.76944815 23.23222093 9211 425 0 0.56500000 0.56500000 0.56500000
C 25.41858269 11.71545321 24.21583724 9212 425 0 0.56500000 0.56500000 0.56500000
H 18.66329175 13.54504879 23.89659219 9213 425 0 1.00000000 1.00000000 1.00000000
H 18.38489474 12.21647041 22.71683310 9214 425 0 1.00000000 1.00000000 1.00000000
H 18.08106089 14.00214578 22.45460581 9215 425 0 1.00000000 1.00000000 1.00000000
H 20.70846183 14.31782694 22.38904905 9216 425 0 1.00000000 1.00000000 1.00000000
H 20.23529148 13.10747227 21.26196576 9217 425 0 1.00000000 1.00000000 1.00000000
H 20.67679304 11.34998289 22.36922288 9218 425 0 1.00000000 1.00000000 1.00000000
H 20.59160737 11.91070270 24.02780982 9219 425 0 1.00000000 1.00000000 1.00000000
H 22.94783733 13.10865931 23.36339498 9220 425 0 1.00000000 1.00000000 1.00000000
H 22.75612950 12.34292258 21.76271173 9221 425 0 1.00000000 1.00000000 1.00000000
H 22.59379101 10.03335238 23.03255684 9222 425 0 1.00000000 1.00000000 1.00000000
H 23.01271014 11.07132853 24.47597692 9223 425 0 1.00000000 1.00000000 1.00000000
H 24.91750433 11.00272716 22.17649747 9224 425 0 1.00000000 1.00000000 1.00000000
H 24.94228825 9.75401440 23.41944372 9225 425 0 1.00000000 1.00000000 1.00000000
H 26.53465295 11.70756537 24.02856821 9226 425 0 1.00000000 1.00000000 1.00000000
H 25.37083927 11.26337100 25.25475927 9227 425 0 1.00000000 1.00000000 1.00000000
H 25.09842469 12.74564298 24.13566164 9228 425 0 1.00000000 1.00000000 1.00000000
C 12.12188087 3.06293116 30.86333084 9229 426 0 0.56500000 0.56500000 0.56500000
C 13.37972686 3.63635104 31.45988768 9230 426 0 0.56500000 0.56500000 0.56500000
C 13.63354042 3.04795200 32.84699821 9231 426 0 0.56500000 0.56500000 0.56500000
C 14.87848363 3.46613031 33.57041050 9232 426 0 0.56500000 0.56500000 0.56500000
C 14.98070757 4.98136824 33.67274684 9233 426 0 0.56500000 0.56500000 0.56500000
C 16.28383136 5.55198494 34.15474598 9234 426 0 0.56500000 0.56500000 0.56500000
C 16.38856582 6.99187411 33.90912490 9235 426 0 0.56500000 0.56500000 0.56500000
H 11.44276274 2.79308349 31.66079164 9236 426 0 1.00000000 1.00000000 1.00000000
H 12.46894196 2.06491748 30.28968448 9237 426 0 1.00000000 1.00000000 1.00000000
H 11.62910340 3.59863557 30.05527304 9238 426 0 1.00000000 1.00000000 1.00000000
H 13.25502732 4.73722649 31.59391555 9239 426 0 1.00000000 1.00000000 1.00000000
H 14.29249447 3.54175890 30.82804094 9240 426 0 1.00000000 1.00000000 1.00000000
H 13.58099715 1.91385868 32.74441213 9241 426 0 1.00000000 1.00000000 1.00000000
H 12.77025924 3.38817610 33.45107871 9242 426 0 1.00000000 1.00000000 1.00000000
H 15.81535005 3.15528747 33.14698763 9243 426 0 1.00000000 1.00000000 1.00000000
H 14.90678237 3.05712468 34.62406438 9244 426 0 1.00000000 1.00000000 1.00000000
H 14.17794999 5.45372576 34.22018494 9245 426 0 1.00000000 1.00000000 1.00000000
H 14.76919335 5.47807479 32.67878682 9246 426 0 1.00000000 1.00000000 1.00000000
H 17.14542507 4.98565047 33.74318771 9247 426 0 1.00000000 1.00000000 1.00000000
H 16.24881646 5.31258974 35.23208840 9248 426 0 1.00000000 1.00000000 1.00000000
H 16.49309984 7.24334032 32.82028381 9249 426 0 1.00000000 1.00000000 1.00000000
H 17.24812955 7.54206489 34.32986306 9250 426 0 1.00000000 1.00000000 1.00000000
H 15.49036493 7.53514737 34.25108377 9251 426 0 1.00000000 1.00000000 1.00000000
C 43.56799882 29.07694987 24.89130309 9252 427 0 0.56500000 0.56500000 0.56500000
C 43.31525579 28.63783397 26.31071544 9253 427 0 0.56500000 0.56500000 0.56500000
C 42.69640584 29.58462870 27.33174022 9254 427 0 0.56500000 0.56500000 0.56500000
C 41.35955075 30.14131530 26.83620998 9255 427 0 0.56500000 0.56500000 0.56500000
C 40.45891122 30.84868078 27.90834665 9256 427 0 0.56500000 0.56500000 0.56500000
C 39.29070639 31.66129293 27.28977802 9257 427 0 0.56500000 0.56500000 0.56500000
C 38.73446834 32.70794613 28.25042284 9258 427 0 0.56500000 0.56500000 0.56500000
H 43.94729227 30.07628649 24.74982710 9259 427 0 1.00000000 1.00000000 1.00000000
H 42.65042149 29.02341888 24.30347158 9260 427 0 1.00000000 1.00000000 1.00000000
H 44.22883076 28.36244451 24.52957264 9261 427 0 1.00000000 1.00000000 1.00000000
H 44.23773863 28.18692070 26.69495580 9262 427 0 1.00000000 1.00000000 1.00000000
H 42.70410080 27.79834639 26.33573610 9263 427 0 1.00000000 1.00000000 1.00000000
H 43.31651171 30.46640005 27.76794340 9264 427 0 1.00000000 1.00000000 1.00000000
H 42.57875819 28.96140796 28.24741275 9265 427 0 1.00000000 1.00000000 1.00000000
H 40.77836141 29.32060243 26.44807533 9266 427 0 1.00000000 1.00000000 1.00000000
H 41.68085562 30.73665622 26.02902324 9267 427 0 1.00000000 1.00000000 1.00000000
H 41.05905327 31.68089141 28.34294989 9268 427 0 1.00000000 1.00000000 1.00000000
H 40.19099911 30.05258500 28.66272644 9269 427 0 1.00000000 1.00000000 1.00000000
H 38.47000117 31.05063668 26.86331943 9270 427 0 1.00000000 1.00000000 1.00000000
H 39.62633088 32.18292590 26.38629091 9271 427 0 1.00000000 1.00000000 1.00000000
H 39.44330184 33.46681597 28.48222236 9272 427 0 1.00000000 1.00000000 1.00000000
H 38.33533495 32.32301426 29.17165327 9273 427 0 1.00000000 1.00000000 1.00000000
H 37.93231614 33.21364573 27.71183945 9274 427 0 1.00000000 1.00000000 1.00000000
C 47.42567651 7.28845225 22.39082982 9275 428 0 0.56500000 0.56500000 0.56500000
C 46.55725899 6.66567026 23.50912546 9276 428 0 0.56500000 0.56500000 0.56500000
C 45.16052787 7.29651258 23.53080894 9277 428 0 0.56500000 0.56500000 0.56500000
C 44.22124927 6.84344806 22.44695341 9278 428 0 0.56500000 0.56500000 0.56500000
C 42.74784497 6.97390963 22.77460134 9279 428 0 0.56500000 0.56500000 0.56500000
C 41.74300828 6.59821566 21.63633517 9280 428 0 0.56500000 0.56500000 0.56500000
C 40.29729632 6.29673239 22.11424686 9281 428 0 0.56500000 0.56500000 0.56500000
H 47.14041714 6.95842441 21.36804214 9282 428 0 1.00000000 1.00000000 1.00000000
H 48.46282023 6.95848187 22.48780332 9283 428 0 1.00000000 1.00000000 1.00000000
H 47.32743641 8.35817757 22.42368666 9284 428 0 1.00000000 1.00000000 1.00000000
H 46.98394900 6.82620529 24.50981464 9285 428 0 1.00000000 1.00000000 1.00000000
H 46.38641116 5.59924974 23.47211829 9286 428 0 1.00000000 1.00000000 1.00000000
H 45.18202522 8.37278585 23.43131676 9287 428 0 1.00000000 1.00000000 1.00000000
H 44.70416206 6.95029951 24.51759551 9288 428 0 1.00000000 1.00000000 1.00000000
H 44.44979666 5.77729856 22.22842891 9289 428 0 1.00000000 1.00000000 1.00000000
H 44.43260779 7.38583016 21.48503405 9290 428 0 1.00000000 1.00000000 1.00000000
H 42.52328908 7.97210859 23.14509312 9291 428 0 1.00000000 1.00000000 1.00000000
H 42.53151426 6.31613039 23.66449545 9292 428 0 1.00000000 1.00000000 1.00000000
H 42.17263038 5.60641657 21.23598621 9293 428 0 1.00000000 1.00000000 1.00000000
H 41.81170404 7.32915945 20.78423130 9294 428 0 1.00000000 1.00000000 1.00000000
H 39.69317545 7.13299357 22.41903239 9295 428 0 1.00000000 1.00000000 1.00000000
H 40.30495976 5.79053085 23.03154305 9296 428 0 1.00000000 1.00000000 1.00000000
H 39.67147501 5.78785270 21.37166465 9297 428 0 1.00000000 1.00000000 1.00000000
C 15.83590406 44.45885365 0.60849565 9298 429 0 0.56500000 0.56500000 0.56500000
C 17.32056558 44.88301977 0.56023522 9299 429 0 0.56500000 0.56500000 0.56500000
C 17.45657785 46.38549308 0.53755174 9300 429 0 0.56500000 0.56500000 0.56500000
C 18.94284503 46.89915516 0.54413848 9301 429 0 0.56500000 0.56500000 0.56500000
C 19.65933779 46.49319829 -0.76222002 9302 429 0 0.56500000 0.56500000 0.56500000
C 21.10889943 47.03885329 -0.83884893 9303 429 0 0.56500000 0.56500000 0.56500000
C 21.87533693 46.58478445 -2.02861561 9304 429 0 0.56500000 0.56500000 0.56500000
H 15.39043095 44.65680100 -0.38397477 9305 429 0 1.00000000 1.00000000 1.00000000
H 15.35124058 45.11185478 1.30854853 9306 429 0 1.00000000 1.00000000 1.00000000
H 15.75549020 43.39661613 0.85210355 9307 429 0 1.00000000 1.00000000 1.00000000
H 17.85238983 44.39609327 -0.26599813 9308 429 0 1.00000000 1.00000000 1.00000000
H 17.83291852 44.44613257 1.48224858 9309 429 0 1.00000000 1.00000000 1.00000000
H 17.00846296 46.77265038 1.43797116 9310 429 0 1.00000000 1.00000000 1.00000000
H 16.96177604 46.93522583 -0.29441453 9311 429 0 1.00000000 1.00000000 1.00000000
H 19.48910098 46.58475732 1.46862432 9312 429 0 1.00000000 1.00000000 1.00000000
H 18.98991208 48.00588339 0.60623039 9313 429 0 1.00000000 1.00000000 1.00000000
H 19.10848352 46.85361253 -1.64811166 9314 429 0 1.00000000 1.00000000 1.00000000
H 19.60740732 45.39395859 -0.80016209 9315 429 0 1.00000000 1.00000000 1.00000000
H 21.63723174 46.75011552 0.07549309 9316 429 0 1.00000000 1.00000000 1.00000000
H 21.06136419 48.11865427 -0.81293744 9317 429 0 1.00000000 1.00000000 1.00000000
H 21.49370184 47.01890444 -2.95290697 9318 429 0 1.00000000 1.00000000 1.00000000
H 21.80630652 45.48720700 -2.09892882 9319 429 0 1.00000000 1.00000000 1.00000000
H 22.93292073 46.92646112 -2.10472634 9320 429 0 1.00000000 1.00000000 1.00000000
C 33.00866733 12.27552645 19.48375469 9321 430 0 0.56500000 0.56500000 0.56500000
C 32.84405587 13.81494194 19.65670317 9322 430 0 0.56500000 0.56500000 0.56500000
C 32.21925793 14.50685066 18.47324657 9323 430 0 0.56500000 0.56500000 0.56500000
C 31.96718369 16.03397921 18.70819775 9324 430 0 0.56500000 0.56500000 0.56500000
C 31.54024425 16.80464617 17.48911045 9325 430 0 0.56500000 0.56500000 0.56500000
C 30.65869022 18.05107561 17.87998876 9326 430 0 0.56500000 0.56500000 0.56500000
C 30.06948118 18.75857742 16.66700991 9327 430 0 0.56500000 0.56500000 0.56500000
H 33.53574634 11.79178004 20.32843042 9328 430 0 1.00000000 1.00000000 1.00000000
H 33.49687485 12.01655386 18.48156458 9329 430 0 1.00000000 1.00000000 1.00000000
H 32.00104976 12.02535204 19.47278803 9330 430 0 1.00000000 1.00000000 1.00000000
H 33.77047319 14.38820925 19.90311579 9331 430 0 1.00000000 1.00000000 1.00000000
H 32.13079670 13.92534567 20.46638950 9332 430 0 1.00000000 1.00000000 1.00000000
H 31.25701236 14.00052998 18.30517625 9333 430 0 1.00000000 1.00000000 1.00000000
H 32.77896965 14.48973165 17.54989138 9334 430 0 1.00000000 1.00000000 1.00000000
H 32.91186178 16.36658046 19.11166108 9335 430 0 1.00000000 1.00000000 1.00000000
H 31.25641578 16.13556577 19.49673059 9336 430 0 1.00000000 1.00000000 1.00000000
H 30.92104722 16.27027353 16.78367373 9337 430 0 1.00000000 1.00000000 1.00000000
H 32.36929593 17.23696635 16.87965688 9338 430 0 1.00000000 1.00000000 1.00000000
H 31.24955503 18.76646641 18.44247934 9339 430 0 1.00000000 1.00000000 1.00000000
H 29.83747887 17.61615464 18.52060330 9340 430 0 1.00000000 1.00000000 1.00000000
H 30.87897238 19.27421459 16.04927080 9341 430 0 1.00000000 1.00000000 1.00000000
H 29.38487198 19.54713780 17.06569146 9342 430 0 1.00000000 1.00000000 1.00000000
H 29.53019650 18.17434026 15.97802898 9343 430 0 1.00000000 1.00000000 1.00000000
C 10.76573792 17.58543942 15.41018062 9344 431 0 0.56500000 0.56500000 0.56500000
C 11.75849842 16.85018655 14.48148032 9345 431 0 0.56500000 0.56500000 0.56500000
C 11.11358213 16.23045922 13.25596729 9346 431 0 0.56500000 0.56500000 0.56500000
C 10.64978643 17.29676134 12.25590664 9347 431 0 0.56500000 0.56500000 0.56500000
C 10.32368154 16.70360229 10.82552476 9348 431 0 0.56500000 0.56500000 0.56500000
C 9.39068797 15.54387137 10.71904680 9349 431 0 0.56500000 0.56500000 0.56500000
C 9.28313461 15.03297880 9.29176256 9350 431 0 0.56500000 0.56500000 0.56500000
H 10.20073483 16.81081527 16.05552399 9351 431 0 1.00000000 1.00000000 1.00000000
H 9.98427238 18.15545950 14.83041638 9352 431 0 1.00000000 1.00000000 1.00000000
H 11.18697099 18.31850084 16.10729545 9353 431 0 1.00000000 1.00000000 1.00000000
H 12.36417796 16.10824298 15.06211650 9354 431 0 1.00000000 1.00000000 1.00000000
H 12.41126139 17.59938968 14.07264055 9355 431 0 1.00000000 1.00000000 1.00000000
H 10.31580502 15.48696376 13.53485683 9356 431 0 1.00000000 1.00000000 1.00000000
H 11.94103148 15.73866722 12.71826865 9357 431 0 1.00000000 1.00000000 1.00000000
H 11.40126257 18.09173107 12.05453966 9358 431 0 1.00000000 1.00000000 1.00000000
H 9.75966171 17.79615946 12.57318385 9359 431 0 1.00000000 1.00000000 1.00000000
H 11.23347440 16.40345153 10.29790284 9360 431 0 1.00000000 1.00000000 1.00000000
H 9.88134217 17.50751103 10.30358746 9361 431 0 1.00000000 1.00000000 1.00000000
H 8.40694606 15.87844421 11.10909212 9362 431 0 1.00000000 1.00000000 1.00000000
H 9.67223213 14.69694377 11.44055988 9363 431 0 1.00000000 1.00000000 1.00000000
H 8.94159179 13.98835384 9.29852092 9364 431 0 1.00000000 1.00000000 1.00000000
H 10.28761709 14.97623141 8.76501677 9365 431 0 1.00000000 1.00000000 1.00000000
H 8.52468104 15.55580427 8.67511696 9366 431 0 1.00000000 1.00000000 1.00000000
C 42.66315920 29.69200176 11.83362476 9367 432 0 0.56500000 0.56500000 0.56500000
C 43.01676247 30.10876752 13.26385491 9368 432 0 0.56500000 0.56500000 0.56500000
C 44.24583761 29.49935331 13.93557411 9369 432 0 0.56500000 0.56500000 0.56500000
C 44.30039136 29.75327711 15.42747605 9370 432 0 0.56500000 0.56500000 0.56500000
C 44.64371048 31.25212537 15.75664648 9371 432 0 0.56500000 0.56500000 0.56500000
C 45.07483127 31.50503737 17.19253429 9372 432 0 0.56500000 0.56500000 0.56500000
C 43.89279007 31.37056528 18.15105005 9373 432 0 0.56500000 0.56500000 0.56500000
H 43.35729592 29.99854335 11.10618586 9374 432 0 1.00000000 1.00000000 1.00000000
H 41.68015120 30.12923592 11.54306090 9375 432 0 1.00000000 1.00000000 1.00000000
H 42.58386845 28.61851014 11.89262593 9376 432 0 1.00000000 1.00000000 1.00000000
H 42.12823920 29.95778974 13.93115331 9377 432 0 1.00000000 1.00000000 1.00000000
H 43.18973129 31.19197566 13.12209301 9378 432 0 1.00000000 1.00000000 1.00000000
H 45.14671742 29.95891239 13.50525525 9379 432 0 1.00000000 1.00000000 1.00000000
H 44.33129557 28.38494764 13.69501168 9380 432 0 1.00000000 1.00000000 1.00000000
H 45.05685313 29.12297921 15.83012829 9381 432 0 1.00000000 1.00000000 1.00000000
H 43.35661695 29.45979597 15.91830711 9382 432 0 1.00000000 1.00000000 1.00000000
H 43.80722919 31.82520410 15.50874398 9383 432 0 1.00000000 1.00000000 1.00000000
H 45.45192968 31.63111520 15.05474650 9384 432 0 1.00000000 1.00000000 1.00000000
H 45.52052329 32.49665406 17.31396768 9385 432 0 1.00000000 1.00000000 1.00000000
H 45.88236497 30.77350312 17.35714667 9386 432 0 1.00000000 1.00000000 1.00000000
H 44.13491804 31.80481507 19.09212678 9387 432 0 1.00000000 1.00000000 1.00000000
H 43.59448841 30.32615842 18.37413582 9388 432 0 1.00000000 1.00000000 1.00000000
H 43.03892417 31.87685138 17.77286960 9389 432 0 1.00000000 1.00000000 1.00000000
C 21.12480965 0.46301415 25.75437216 9390 433 0 0.56500000 0.56500000 0.56500000
C 21.78527955 1.52075733 24.92535724 9391 433 0 0.56500000 0.56500000 0.56500000
C 21.27141656 2.91445115 25.31297421 9392 433 0 0.56500000 0.56500000 0.56500000
C 21.92924417 4.00368359 24.54051092 9393 433 0 0.56500000 0.56500000 0.56500000
C 22.20306900 5.33121216 25.21653388 9394 433 0 0.56500000 0.56500000 0.56500000
C 23.19520203 6.24359271 24.46776646 9395 433 0 0.56500000 0.56500000 0.56500000
C 23.43032710 7.54109878 25.27200433 9396 433 0 0.56500000 0.56500000 0.56500000
H 20.03758006 0.57607244 25.68456002 9397 433 0 1.00000000 1.00000000 1.00000000
H 21.40760156 0.61415959 26.79582769 9398 433 0 1.00000000 1.00000000 1.00000000
H 21.30826150 -0.60299893 25.39123010 9399 433 0 1.00000000 1.00000000 1.00000000
H 21.43079489 1.26485966 23.94223132 9400 433 0 1.00000000 1.00000000 1.00000000
H 22.86122594 1.54757011 24.76000666 9401 433 0 1.00000000 1.00000000 1.00000000
H 21.60129208 2.98133395 26.39528135 9402 433 0 1.00000000 1.00000000 1.00000000
H 20.17669307 2.95383424 25.33465646 9403 433 0 1.00000000 1.00000000 1.00000000
H 21.40877000 4.10313082 23.58951941 9404 433 0 1.00000000 1.00000000 1.00000000
H 22.95451509 3.64034514 24.21862228 9405 433 0 1.00000000 1.00000000 1.00000000
H 22.63437159 5.14322454 26.24519080 9406 433 0 1.00000000 1.00000000 1.00000000
H 21.33276146 5.93012724 25.43875578 9407 433 0 1.00000000 1.00000000 1.00000000
H 22.88639232 6.54113111 23.42058891 9408 433 0 1.00000000 1.00000000 1.00000000
H 24.10912587 5.70332125 24.53084963 9409 433 0 1.00000000 1.00000000 1.00000000
H 24.25546227 8.12957784 24.75946453 9410 433 0 1.00000000 1.00000000 1.00000000
H 23.75258548 7.36611135 26.27813394 9411 433 0 1.00000000 1.00000000 1.00000000
H 22.66226571 8.26356374 25.37948167 9412 433 0 1.00000000 1.00000000 1.00000000
C 46.76663415 26.84463575 19.76169691 9413 434 0 0.56500000 0.56500000 0.56500000
C 45.55400494 27.83076055 20.03511827 9414 434 0 0.56500000 0.56500000 0.56500000
C 46.06778946 29.09869288 20.82291807 9415 434 0 0.56500000 0.56500000 0.56500000
C 44.91558150 29.99152700 21.38474710 9416 434 0 0.56500000 0.56500000 0.56500000
C 45.45200341 31.29876912 21.89885503 9417 434 0 0.56500000 0.56500000 0.56500000
C 44.27647870 32.24540903 22.35311971 9418 434 0 0.56500000 0.56500000 0.56500000
C 44.85286130 33.32425574 23.29209934 9419 434 0 0.56500000 0.56500000 0.56500000
H 46.45890301 25.94748763 19.22003075 9420 434 0 1.00000000 1.00000000 1.00000000
H 47.29858351 26.50226497 20.62650897 9421 434 0 1.00000000 1.00000000 1.00000000
H 47.47868205 27.34736252 19.08215849 9422 434 0 1.00000000 1.00000000 1.00000000
H 44.83469375 27.30292011 20.57095867 9423 434 0 1.00000000 1.00000000 1.00000000
H 45.22985165 28.06089163 19.06329286 9424 434 0 1.00000000 1.00000000 1.00000000
H 46.78939749 29.71442426 20.28069080 9425 434 0 1.00000000 1.00000000 1.00000000
H 46.55009268 28.72786071 21.78259023 9426 434 0 1.00000000 1.00000000 1.00000000
H 44.33361749 29.44355420 22.07623990 9427 434 0 1.00000000 1.00000000 1.00000000
H 44.20477048 30.21295409 20.58618218 9428 434 0 1.00000000 1.00000000 1.00000000
H 46.09697264 31.82711160 21.14341767 9429 434 0 1.00000000 1.00000000 1.00000000
H 46.07873664 31.10855086 22.84778035 9430 434 0 1.00000000 1.00000000 1.00000000
H 43.48012073 31.70554177 22.87389307 9431 434 0 1.00000000 1.00000000 1.00000000
H 43.91759530 32.66920424 21.43863884 9432 434 0 1.00000000 1.00000000 1.00000000
H 45.67845542 33.96773016 22.95655916 9433 434 0 1.00000000 1.00000000 1.00000000
H 45.17713905 32.88898292 24.29158750 9434 434 0 1.00000000 1.00000000 1.00000000
H 44.04392491 33.96736684 23.61544391 9435 434 0 1.00000000 1.00000000 1.00000000
C 2.08787665 20.64467060 23.60558097 9436 435 0 0.56500000 0.56500000 0.56500000
C 2.77695610 21.00724504 24.91862082 9437 435 0 0.56500000 0.56500000 0.56500000
C 4.22621886 20.48266363 24.98916035 9438 435 0 0.56500000 0.56500000 0.56500000
C 4.96293460 20.68556312 26.25495896 9439 435 0 0.56500000 0.56500000 0.56500000
C 6.50825751 20.29131339 26.27601143 9440 435 0 0.56500000 0.56500000 0.56500000
C 6.84673409 19.49688594 27.54049532 9441 435 0 0.56500000 0.56500000 0.56500000
C 8.30651379 18.97227832 27.64800459 9442 435 0 0.56500000 0.56500000 0.56500000
H 1.18549535 21.21555865 23.49603735 9443 435 0 1.00000000 1.00000000 1.00000000
H 1.88910858 19.55348926 23.54428903 9444 435 0 1.00000000 1.00000000 1.00000000
H 2.73042314 20.93757565 22.78957697 9445 435 0 1.00000000 1.00000000 1.00000000
H 2.20051173 20.78382723 25.85356086 9446 435 0 1.00000000 1.00000000 1.00000000
H 2.77892313 22.14555246 24.96697273 9447 435 0 1.00000000 1.00000000 1.00000000
H 4.92801509 20.87406012 24.16204952 9448 435 0 1.00000000 1.00000000 1.00000000
H 4.20286185 19.37276016 24.83820997 9449 435 0 1.00000000 1.00000000 1.00000000
H 4.48251803 20.05397342 27.04179739 9450 435 0 1.00000000 1.00000000 1.00000000
H 4.94158124 21.71667378 26.63518954 9451 435 0 1.00000000 1.00000000 1.00000000
H 6.95931318 21.25655131 26.21039615 9452 435 0 1.00000000 1.00000000 1.00000000
H 6.73295917 19.72545122 25.37704319 9453 435 0 1.00000000 1.00000000 1.00000000
H 6.10417973 18.69187596 27.68900641 9454 435 0 1.00000000 1.00000000 1.00000000
H 6.74466767 20.20476555 28.29693137 9455 435 0 1.00000000 1.00000000 1.00000000
H 8.48055746 18.75764594 28.81112763 9456 435 0 1.00000000 1.00000000 1.00000000
H 9.00980719 19.69051229 27.33235086 9457 435 0 1.00000000 1.00000000 1.00000000
H 8.47483984 18.07231834 27.07971832 9458 435 0 1.00000000 1.00000000 1.00000000
C 38.36805959 42.96031990 26.94522806 9459 436 0 0.56500000 0.56500000 0.56500000
C 38.06581828 42.82451477 28.42903793 9460 436 0 0.56500000 0.56500000 0.56500000
C 37.58776264 44.14496297 29.01536575 9461 436 0 0.56500000 0.56500000 0.56500000
C 37.48080385 44.07222342 30.52404210 9462 436 0 0.56500000 0.56500000 0.56500000
C 36.93192462 45.37596202 31.20024518 9463 436 0 0.56500000 0.56500000 0.56500000
C 36.17015877 44.98912374 32.46311228 9464 436 0 0.56500000 0.56500000 0.56500000
C 35.64353520 46.35352613 32.96262346 9465 436 0 0.56500000 0.56500000 0.56500000
H 39.31725735 43.53547439 26.75564385 9466 436 0 1.00000000 1.00000000 1.00000000
H 37.61665353 43.48084687 26.32437289 9467 436 0 1.00000000 1.00000000 1.00000000
H 38.51776723 41.97230273 26.29356230 9468 436 0 1.00000000 1.00000000 1.00000000
H 38.96613334 42.51077335 29.00274767 9469 436 0 1.00000000 1.00000000 1.00000000
H 37.28534834 42.04657606 28.56038562 9470 436 0 1.00000000 1.00000000 1.00000000
H 36.65508830 44.43344352 28.54022470 9471 436 0 1.00000000 1.00000000 1.00000000
H 38.40661517 44.75898175 28.68021668 9472 436 0 1.00000000 1.00000000 1.00000000
H 38.41919329 43.71622107 30.98443939 9473 436 0 1.00000000 1.00000000 1.00000000
H 36.70667965 43.21828334 30.69368728 9474 436 0 1.00000000 1.00000000 1.00000000
H 36.24277162 46.01541863 30.60160514 9475 436 0 1.00000000 1.00000000 1.00000000
H 37.79911511 45.95279512 31.41125489 9476 436 0 1.00000000 1.00000000 1.00000000
H 36.82897585 44.44219380 33.13504903 9477 436 0 1.00000000 1.00000000 1.00000000
H 35.36241256 44.28039921 32.23421088 9478 436 0 1.00000000 1.00000000 1.00000000
H 35.09823371 46.90720621 32.19406656 9479 436 0 1.00000000 1.00000000 1.00000000
H 36.49352369 46.94469131 33.35911909 9480 436 0 1.00000000 1.00000000 1.00000000
H 34.92658004 46.17418959 33.80563236 9481 436 0 1.00000000 1.00000000 1.00000000
C 2.11929112 15.74152290 12.48063406 9482 437 0 0.56500000 0.56500000 0.56500000
C 1.00650247 16.72216893 11.98509135 9483 437 0 0.56500000 0.56500000 0.56500000
C 1.21709809 17.31026494 10.55255909 9484 437 0 0.56500000 0.56500000 0.56500000
C 2.43407518 18.31598528 10.40144278 9485 437 0 0.56500000 0.56500000 0.56500000
C 2.53328410 19.04517802 9.02743823 9486 437 0 0.56500000 0.56500000 0.56500000
C 3.47389192 20.28003787 9.17034508 9487 437 0 0.56500000 0.56500000 0.56500000
C 3.56523738 21.07420823 7.88055504 9488 437 0 0.56500000 0.56500000 0.56500000
H 2.93492417 15.93425157 11.79981227 9489 437 0 1.00000000 1.00000000 1.00000000
H 1.79423812 14.69682091 12.33266714 9490 437 0 1.00000000 1.00000000 1.00000000
H 2.48233305 15.91186519 13.48762403 9491 437 0 1.00000000 1.00000000 1.00000000
H 1.03642504 17.59982074 12.63149905 9492 437 0 1.00000000 1.00000000 1.00000000
H 0.02236403 16.28640331 12.14568382 9493 437 0 1.00000000 1.00000000 1.00000000
H 0.33148665 17.94475852 10.34126189 9494 437 0 1.00000000 1.00000000 1.00000000
H 1.31633045 16.46518609 9.85118172 9495 437 0 1.00000000 1.00000000 1.00000000
H 3.35388985 17.77445637 10.54518242 9496 437 0 1.00000000 1.00000000 1.00000000
H 2.32355283 19.16758896 11.07630945 9497 437 0 1.00000000 1.00000000 1.00000000
H 1.60494355 19.49501238 8.70563694 9498 437 0 1.00000000 1.00000000 1.00000000
H 2.87904445 18.40163346 8.22108757 9499 437 0 1.00000000 1.00000000 1.00000000
H 4.50987183 20.17265264 9.56606140 9500 437 0 1.00000000 1.00000000 1.00000000
H 2.99488806 20.97517945 9.86830614 9501 437 0 1.00000000 1.00000000 1.00000000
H 3.88500655 22.10127801 8.09239592 9502 437 0 1.00000000 1.00000000 1.00000000
H 2.54068217 21.03324636 7.43110238 9503 437 0 1.00000000 1.00000000 1.00000000
H 4.27901456 20.64120255 7.19785439 9504 437 0 1.00000000 1.00000000 1.00000000
C -2.42273992 36.61208174 13.65326026 9505 438 0 0.56500000 0.56500000 0.56500000
C -1.70902035 36.95430655 14.94670800 9506 438 0 0.56500000 0.56500000 0.56500000
C -1.88807599 35.88720814 16.09272290 9507 438 0 0.56500000 0.56500000 0.56500000
C -1.27311348 36.32414849 17.46764838 9508 438 0 0.56500000 0.56500000 0.56500000
C 0.27679262 36.61117604 17.53293579 9509 438 0 0.56500000 0.56500000 0.56500000
C 1.10003590 35.43876553 16.97131780 9510 438 0 0.56500000 0.56500000 0.56500000
C 2.41376914 35.26006446 17.74168521 9511 438 0 0.56500000 0.56500000 0.56500000
H -3.47639490 36.59136146 13.77499224 9512 438 0 1.00000000 1.00000000 1.00000000
H -2.16933986 35.68146218 13.18107534 9513 438 0 1.00000000 1.00000000 1.00000000
H -2.24700002 37.43460850 12.96093013 9514 438 0 1.00000000 1.00000000 1.00000000
H -2.03960438 37.85151511 15.41931136 9515 438 0 1.00000000 1.00000000 1.00000000
H -0.62401490 37.04135109 14.75431742 9516 438 0 1.00000000 1.00000000 1.00000000
H -1.30993195 35.02091243 15.73359742 9517 438 0 1.00000000 1.00000000 1.00000000
H -2.94510066 35.68004400 16.05484897 9518 438 0 1.00000000 1.00000000 1.00000000
H -1.45280974 35.50707561 18.15069855 9519 438 0 1.00000000 1.00000000 1.00000000
H -1.88993498 37.14395213 17.79752222 9520 438 0 1.00000000 1.00000000 1.00000000
H 0.46055893 36.75532774 18.64498108 9521 438 0 1.00000000 1.00000000 1.00000000
H 0.62416401 37.53269858 17.06872481 9522 438 0 1.00000000 1.00000000 1.00000000
H 1.10980139 35.43967685 15.87652301 9523 438 0 1.00000000 1.00000000 1.00000000
H 0.46250121 34.51198952 17.12313030 9524 438 0 1.00000000 1.00000000 1.00000000
H 2.96946098 36.20074455 17.81974988 9525 438 0 1.00000000 1.00000000 1.00000000
H 3.02756285 34.48964576 17.29270533 9526 438 0 1.00000000 1.00000000 1.00000000
H 2.11232058 34.95559977 18.75346081 9527 438 0 1.00000000 1.00000000 1.00000000
C 36.23516744 15.87801323 36.20495874 9528 439 0 0.56500000 0.56500000 0.56500000
C 35.27561783 15.22214397 35.32160791 9529 439 0 0.56500000 0.56500000 0.56500000
C 35.91322651 13.98961438 34.68024903 9530 439 0 0.56500000 0.56500000 0.56500000
C 34.87346563 13.24244298 33.77946376 9531 439 0 0.56500000 0.56500000 0.56500000
C 35.24734378 12.11098065 32.83947131 9532 439 0 0.56500000 0.56500000 0.56500000
C 36.26165152 12.41737526 31.69149201 9533 439 0 0.56500000 0.56500000 0.56500000
C 36.91350542 11.12782645 31.20163667 9534 439 0 0.56500000 0.56500000 0.56500000
H 36.77437494 15.20213355 36.76200550 9535 439 0 1.00000000 1.00000000 1.00000000
H 35.74034040 16.57792538 36.82407215 9536 439 0 1.00000000 1.00000000 1.00000000
H 37.10028089 16.45863066 35.71705600 9537 439 0 1.00000000 1.00000000 1.00000000
H 35.01734518 15.91405059 34.50871807 9538 439 0 1.00000000 1.00000000 1.00000000
H 34.45545608 14.91882030 35.91284713 9539 439 0 1.00000000 1.00000000 1.00000000
H 36.38637474 13.32699483 35.31803866 9540 439 0 1.00000000 1.00000000 1.00000000
H 36.76741772 14.29923675 34.12082017 9541 439 0 1.00000000 1.00000000 1.00000000
H 34.25268695 13.93658638 33.22375825 9542 439 0 1.00000000 1.00000000 1.00000000
H 34.03528338 12.79958388 34.40966784 9543 439 0 1.00000000 1.00000000 1.00000000
H 34.34982991 11.76925711 32.33659859 9544 439 0 1.00000000 1.00000000 1.00000000
H 35.60870630 11.22484426 33.41201954 9545 439 0 1.00000000 1.00000000 1.00000000
H 37.02852235 13.08850143 32.06749553 9546 439 0 1.00000000 1.00000000 1.00000000
H 35.85191456 12.99446129 30.85692414 9547 439 0 1.00000000 1.00000000 1.00000000
H 37.79913264 11.33919662 30.55345983 9548 439 0 1.00000000 1.00000000 1.00000000
H 36.24157974 10.54660703 30.59192742 9549 439 0 1.00000000 1.00000000 1.00000000
H 37.17392923 10.41707509 32.04062779 9550 439 0 1.00000000 1.00000000 1.00000000
C 31.07789356 23.15400254 22.04225429 9551 440 0 0.56500000 0.56500000 0.56500000
C 32.58865006 23.11845154 22.25900962 9552 440 0 0.56500000 0.56500000 0.56500000
C 33.30230675 24.50417009 22.31435881 9553 440 0 0.56500000 0.56500000 0.56500000
C 34.83981079 24.56259652 22.44118269 9554 440 0 0.56500000 0.56500000 0.56500000
C 35.38755741 24.61829003 23.85357237 9555 440 0 0.56500000 0.56500000 0.56500000
C 35.16659002 25.94728043 24.55655988 9556 440 0 0.56500000 0.56500000 0.56500000
C 36.27910714 26.96089498 24.13640863 9557 440 0 0.56500000 0.56500000 0.56500000
H 30.81057023 23.68139815 21.10751690 9558 440 0 1.00000000 1.00000000 1.00000000
H 30.67389731 23.76738561 22.87644832 9559 440 0 1.00000000 1.00000000 1.00000000
H 30.64574725 22.17114975 22.02267793 9560 440 0 1.00000000 1.00000000 1.00000000
H 33.01999310 22.50667411 21.47318717 9561 440 0 1.00000000 1.00000000 1.00000000
H 32.74203802 22.65019087 23.22309831 9562 440 0 1.00000000 1.00000000 1.00000000
H 32.84711939 25.06417634 23.15738124 9563 440 0 1.00000000 1.00000000 1.00000000
H 33.00906728 24.99466524 21.37184042 9564 440 0 1.00000000 1.00000000 1.00000000
H 35.16536614 25.46623644 21.87853808 9565 440 0 1.00000000 1.00000000 1.00000000
H 35.23414410 23.71871792 21.95344903 9566 440 0 1.00000000 1.00000000 1.00000000
H 36.48724334 24.44307579 23.96177934 9567 440 0 1.00000000 1.00000000 1.00000000
H 34.89972207 23.79871007 24.42583238 9568 440 0 1.00000000 1.00000000 1.00000000
H 35.25685893 25.80601786 25.68782822 9569 440 0 1.00000000 1.00000000 1.00000000
H 34.17881611 26.40839102 24.33773079 9570 440 0 1.00000000 1.00000000 1.00000000
H 37.25699750 26.43564962 23.93407670 9571 440 0 1.00000000 1.00000000 1.00000000
H 36.51989589 27.62048583 24.89988394 9572 440 0 1.00000000 1.00000000 1.00000000
H 36.03651366 27.40693710 23.16175936 9573 440 0 1.00000000 1.00000000 1.00000000
C 47.95359657 15.98434400 2.29828975 9574 441 0 0.56500000 0.56500000 0.56500000
C 46.73176264 15.88713698 1.41035993 9575 441 0 0.56500000 0.56500000 0.56500000
C 46.65756635 16.66207941 0.10766630 9576 441 0 0.56500000 0.56500000 0.56500000
C 46.37326468 18.15981435 0.26825090 9577 441 0 0.56500000 0.56500000 0.56500000
C 46.38250060 18.86836529 -1.04794495 9578 441 0 0.56500000 0.56500000 0.56500000
C 46.37909315 20.40886805 -1.03286495 9579 441 0 0.56500000 0.56500000 0.56500000
C 45.09873859 20.97489361 -0.67175943 9580 441 0 0.56500000 0.56500000 0.56500000
H 48.42217511 16.99471909 2.51527404 9581 441 0 1.00000000 1.00000000 1.00000000
H 48.72083269 15.45028830 1.79011601 9582 441 0 1.00000000 1.00000000 1.00000000
H 47.73510205 15.68755461 3.28929334 9583 441 0 1.00000000 1.00000000 1.00000000
H 45.79053051 16.13127581 1.96932526 9584 441 0 1.00000000 1.00000000 1.00000000
H 46.58698964 14.75687109 1.18416735 9585 441 0 1.00000000 1.00000000 1.00000000
H 45.88218542 16.07298905 -0.40175061 9586 441 0 1.00000000 1.00000000 1.00000000
H 47.55163617 16.44852070 -0.48061256 9587 441 0 1.00000000 1.00000000 1.00000000
H 47.13382374 18.57976304 0.91569560 9588 441 0 1.00000000 1.00000000 1.00000000
H 45.43161953 18.27771718 0.76885859 9589 441 0 1.00000000 1.00000000 1.00000000
H 45.52729429 18.43390161 -1.66034830 9590 441 0 1.00000000 1.00000000 1.00000000
H 47.30889017 18.49185381 -1.60444884 9591 441 0 1.00000000 1.00000000 1.00000000
H 46.72775183 20.77234751 -2.00764708 9592 441 0 1.00000000 1.00000000 1.00000000
H 47.09427002 20.82435481 -0.34483478 9593 441 0 1.00000000 1.00000000 1.00000000
H 45.01887355 21.07909728 0.41156332 9594 441 0 1.00000000 1.00000000 1.00000000
H 44.16827097 20.41730816 -0.97013150 9595 441 0 1.00000000 1.00000000 1.00000000
H 44.93397526 21.95030067 -0.97824723 9596 441 0 1.00000000 1.00000000 1.00000000
C 17.17053381 23.22094772 6.12965171 9597 442 0 0.56500000 0.56500000 0.56500000
C 15.97811385 22.93612656 7.03352034 9598 442 0 0.56500000 0.56500000 0.56500000
C 15.65185798 21.46507280 7.17638331 9599 442 0 0.56500000 0.56500000 0.56500000
C 14.49994447 21.09425946 8.12423909 9600 442 0 0.56500000 0.56500000 0.56500000
C 13.16978571 21.53376430 7.59768826 9601 442 0 0.56500000 0.56500000 0.56500000
C 12.03778164 21.12886567 8.49394571 9602 442 0 0.56500000 0.56500000 0.56500000
C 10.63065957 21.60526449 8.11817049 9603 442 0 0.56500000 0.56500000 0.56500000
H 18.04984354 22.59398768 6.21211850 9604 442 0 1.00000000 1.00000000 1.00000000
H 17.56415690 24.20950984 6.32849300 9605 442 0 1.00000000 1.00000000 1.00000000
H 16.77307435 23.19680926 5.13691474 9606 442 0 1.00000000 1.00000000 1.00000000
H 15.09257040 23.54074608 6.67295388 9607 442 0 1.00000000 1.00000000 1.00000000
H 16.14547439 23.28652019 8.06736751 9608 442 0 1.00000000 1.00000000 1.00000000
H 16.56395212 21.02359169 7.60671286 9609 442 0 1.00000000 1.00000000 1.00000000
H 15.66841912 20.88414705 6.26567347 9610 442 0 1.00000000 1.00000000 1.00000000
H 14.59737759 21.57758956 9.05183479 9611 442 0 1.00000000 1.00000000 1.00000000
H 14.50027480 20.05570701 8.24338274 9612 442 0 1.00000000 1.00000000 1.00000000
H 13.06930275 21.14856840 6.53823191 9613 442 0 1.00000000 1.00000000 1.00000000
H 13.20055068 22.63028293 7.54111609 9614 442 0 1.00000000 1.00000000 1.00000000
H 12.27191089 21.26113665 9.56511289 9615 442 0 1.00000000 1.00000000 1.00000000
H 12.09958375 20.03229452 8.47252993 9616 442 0 1.00000000 1.00000000 1.00000000
H 10.53691384 21.46502855 7.02161226 9617 442 0 1.00000000 1.00000000 1.00000000
H 10.52162453 22.66700701 8.38579781 9618 442 0 1.00000000 1.00000000 1.00000000
H 9.80457550 21.08984421 8.56332687 9619 442 0 1.00000000 1.00000000 1.00000000
C 6.53811458 35.16564424 31.62800309 9620 443 0 0.56500000 0.56500000 0.56500000
C 6.81520308 35.96496900 30.44769278 9621 443 0 0.56500000 0.56500000 0.56500000
C 7.57563908 37.31638987 30.73633878 9622 443 0 0.56500000 0.56500000 0.56500000
C 7.80183396 38.21288946 29.49422771 9623 443 0 0.56500000 0.56500000 0.56500000
C 8.42572986 39.58714242 29.76402796 9624 443 0 0.56500000 0.56500000 0.56500000
C 8.74704715 40.21252305 28.43323256 9625 443 0 0.56500000 0.56500000 0.56500000
C 9.29267587 41.65568381 28.43581849 9626 443 0 0.56500000 0.56500000 0.56500000
H 5.89494454 34.23388841 31.39824140 9627 443 0 1.00000000 1.00000000 1.00000000
H 5.92384357 35.75858332 32.31074876 9628 443 0 1.00000000 1.00000000 1.00000000
H 7.42304497 34.81381727 32.21007027 9629 443 0 1.00000000 1.00000000 1.00000000
H 5.89375641 36.26864364 29.93926890 9630 443 0 1.00000000 1.00000000 1.00000000
H 7.34230597 35.35000151 29.81843969 9631 443 0 1.00000000 1.00000000 1.00000000
H 8.51442116 37.14799065 31.20796481 9632 443 0 1.00000000 1.00000000 1.00000000
H 7.01224012 38.01024629 31.44051391 9633 443 0 1.00000000 1.00000000 1.00000000
H 6.90928568 38.53052885 28.93215840 9634 443 0 1.00000000 1.00000000 1.00000000
H 8.46437775 37.71798975 28.75693203 9635 443 0 1.00000000 1.00000000 1.00000000
H 9.30853337 39.46393726 30.40305621 9636 443 0 1.00000000 1.00000000 1.00000000
H 7.66988506 40.22483181 30.30697398 9637 443 0 1.00000000 1.00000000 1.00000000
H 7.83223435 40.23145736 27.88930831 9638 443 0 1.00000000 1.00000000 1.00000000
H 9.43345479 39.52010150 27.89069969 9639 443 0 1.00000000 1.00000000 1.00000000
H 8.81594707 42.26195909 29.26573073 9640 443 0 1.00000000 1.00000000 1.00000000
H 8.93264907 42.10413121 27.44467515 9641 443 0 1.00000000 1.00000000 1.00000000
H 10.36951746 41.66275206 28.49116348 9642 443 0 1.00000000 1.00000000 1.00000000
C 34.09786079 45.26077573 37.11688988 9643 444 0 0.56500000 0.56500000 0.56500000
C 34.93690450 45.41673801 38.41428619 9644 444 0 0.56500000 0.56500000 0.56500000
C 35.37443828 44.15056142 39.16322674 9645 444 0 0.56500000 0.56500000 0.56500000
C 34.12454479 43.47284705 39.68253785 9646 444 0 0.56500000 0.56500000 0.56500000
C 34.44098855 42.12741210 40.39167670 9647 444 0 0.56500000 0.56500000 0.56500000
C 33.36015583 41.69850622 41.30796225 9648 444 0 0.56500000 0.56500000 0.56500000
C 32.06469237 41.39363060 40.58619323 9649 444 0 0.56500000 0.56500000 0.56500000
H 33.99417462 46.26771236 36.69134151 9650 444 0 1.00000000 1.00000000 1.00000000
H 33.03805504 45.05296099 37.34181091 9651 444 0 1.00000000 1.00000000 1.00000000
H 34.37454831 44.56285105 36.30930470 9652 444 0 1.00000000 1.00000000 1.00000000
H 34.40562132 46.06214318 39.14990504 9653 444 0 1.00000000 1.00000000 1.00000000
H 35.74086664 46.10114064 38.13361578 9654 444 0 1.00000000 1.00000000 1.00000000
H 36.10865237 44.36507936 39.89976880 9655 444 0 1.00000000 1.00000000 1.00000000
H 35.88452006 43.36934765 38.54052586 9656 444 0 1.00000000 1.00000000 1.00000000
H 33.47490604 43.43096018 38.81228594 9657 444 0 1.00000000 1.00000000 1.00000000
H 33.55618186 44.10144892 40.35052215 9658 444 0 1.00000000 1.00000000 1.00000000
H 35.35338510 42.22412808 40.96482261 9659 444 0 1.00000000 1.00000000 1.00000000
H 34.61633888 41.28076915 39.70316161 9660 444 0 1.00000000 1.00000000 1.00000000
H 33.24997976 42.39346319 42.12973662 9661 444 0 1.00000000 1.00000000 1.00000000
H 33.72125580 40.75994313 41.75841629 9662 444 0 1.00000000 1.00000000 1.00000000
H 31.81921221 42.20205791 39.95241268 9663 444 0 1.00000000 1.00000000 1.00000000
H 31.27435462 41.33242690 41.27196173 9664 444 0 1.00000000 1.00000000 1.00000000
H 32.17215161 40.42319068 39.92574853 9665 444 0 1.00000000 1.00000000 1.00000000
C 15.37589472 33.19824183 23.07966302 9666 445 0 0.56500000 0.56500000 0.56500000
C 16.83132708 33.12746027 22.72127581 9667 445 0 0.56500000 0.56500000 0.56500000
C 17.54930588 34.42015199 22.46972146 9668 445 0 0.56500000 0.56500000 0.56500000
C 19.02446935 34.34144063 22.72113830 9669 445 0 0.56500000 0.56500000 0.56500000
C 19.87917921 33.46433537 21.79504399 9670 445 0 0.56500000 0.56500000 0.56500000
C 21.37949609 33.81875045 21.80728424 9671 445 0 0.56500000 0.56500000 0.56500000
C 21.89234346 34.84336414 20.75202413 9672 445 0 0.56500000 0.56500000 0.56500000
H 14.79841239 33.35949640 22.15966018 9673 445 0 1.00000000 1.00000000 1.00000000
H 15.20151090 33.90116131 23.92917183 9674 445 0 1.00000000 1.00000000 1.00000000
H 15.02855269 32.25534645 23.54421967 9675 445 0 1.00000000 1.00000000 1.00000000
H 16.92517009 32.56386629 21.76505554 9676 445 0 1.00000000 1.00000000 1.00000000
H 17.42223262 32.56664320 23.47919561 9677 445 0 1.00000000 1.00000000 1.00000000
H 17.18955604 35.24087886 23.06164898 9678 445 0 1.00000000 1.00000000 1.00000000
H 17.40590227 34.85750840 21.46061840 9679 445 0 1.00000000 1.00000000 1.00000000
H 19.25690213 34.01183166 23.73252148 9680 445 0 1.00000000 1.00000000 1.00000000
H 19.30955991 35.42873744 22.62062093 9681 445 0 1.00000000 1.00000000 1.00000000
H 19.50514125 33.56770622 20.70925845 9682 445 0 1.00000000 1.00000000 1.00000000
H 19.59810190 32.44157954 22.04263031 9683 445 0 1.00000000 1.00000000 1.00000000
H 21.93116304 32.92273195 21.50261128 9684 445 0 1.00000000 1.00000000 1.00000000
H 21.59240539 34.08413745 22.83533241 9685 445 0 1.00000000 1.00000000 1.00000000
H 21.49655973 34.58967203 19.76470910 9686 445 0 1.00000000 1.00000000 1.00000000
H 22.95086799 34.98165865 20.90692138 9687 445 0 1.00000000 1.00000000 1.00000000
H 21.37126485 35.79007525 21.04263218 9688 445 0 1.00000000 1.00000000 1.00000000
C 45.97228509 29.67175525 30.92387260 9689 446 0 0.56500000 0.56500000 0.56500000
C 47.11467978 30.64310660 31.32146652 9690 446 0 0.56500000 0.56500000 0.56500000
C 47.16944166 31.87171669 30.40494941 9691 446 0 0.56500000 0.56500000 0.56500000
C 48.17439732 32.93808024 30.66836908 9692 446 0 0.56500000 0.56500000 0.56500000
C 47.79201185 33.91676114 31.77648605 9693 446 0 0.56500000 0.56500000 0.56500000
C 48.56766579 35.19229484 31.84214864 9694 446 0 0.56500000 0.56500000 0.56500000
C 50.06072769 35.02468070 32.32131328 9695 446 0 0.56500000 0.56500000 0.56500000
H 45.77105154 28.98111925 31.73102345 9696 446 0 1.00000000 1.00000000 1.00000000
H 46.40597684 28.95647378 30.19418220 9697 446 0 1.00000000 1.00000000 1.00000000
H 45.01476168 30.08189174 30.62661017 9698 446 0 1.00000000 1.00000000 1.00000000
H 48.12643924 30.11759437 31.42800470 9699 446 0 1.00000000 1.00000000 1.00000000
H 46.99645543 30.99334035 32.35851093 9700 446 0 1.00000000 1.00000000 1.00000000
H 46.21959753 32.43207029 30.47718747 9701 446 0 1.00000000 1.00000000 1.00000000
H 47.21587711 31.43028996 29.43939131 9702 446 0 1.00000000 1.00000000 1.00000000
H 48.41015099 33.51409897 29.77907841 9703 446 0 1.00000000 1.00000000 1.00000000
H 49.19996899 32.68109151 30.86839859 9704 446 0 1.00000000 1.00000000 1.00000000
H 47.84970151 33.46097247 32.78888196 9705 446 0 1.00000000 1.00000000 1.00000000
H 46.79281860 34.23226931 31.58015017 9706 446 0 1.00000000 1.00000000 1.00000000
H 48.00456401 35.92852009 32.45158971 9707 446 0 1.00000000 1.00000000 1.00000000
H 48.61584205 35.66293688 30.87923799 9708 446 0 1.00000000 1.00000000 1.00000000
H 50.61676920 35.97152916 32.32315392 9709 446 0 1.00000000 1.00000000 1.00000000
H 50.49369312 34.37146639 31.54554077 9710 446 0 1.00000000 1.00000000 1.00000000
H 50.16102585 34.32002097 33.23646046 9711 446 0 1.00000000 1.00000000 1.00000000
C 16.14099136 51.35066581 -1.05221714 9712 447 0 0.56500000 0.56500000 0.56500000
C 17.66386959 51.60831138 -1.12155879 9713 447 0 0.56500000 0.56500000 0.56500000
C 18.48671035 50.43728215 -0.57588340 9714 447 0 0.56500000 0.56500000 0.56500000
C 19.99814303 50.64576235 -0.18949409 9715 447 0 0.56500000 0.56500000 0.56500000
C 21.01309866 50.58857790 -1.27594556 9716 447 0 0.56500000 0.56500000 0.56500000
C 22.51653981 50.31619671 -1.00572115 9717 447 0 0.56500000 0.56500000 0.56500000
C 23.27114697 50.07805917 -2.33813774 9718 447 0 0.56500000 0.56500000 0.56500000
H 15.64058938 52.14134767 -1.64088272 9719 447 0 1.00000000 1.00000000 1.00000000
H 15.72127407 51.39181087 -0.00192875 9720 447 0 1.00000000 1.00000000 1.00000000
H 15.90685019 50.40991924 -1.54730340 9721 447 0 1.00000000 1.00000000 1.00000000
H 17.91913764 52.45526566 -0.44624907 9722 447 0 1.00000000 1.00000000 1.00000000
H 17.90140440 51.83540642 -2.16968090 9723 447 0 1.00000000 1.00000000 1.00000000
H 18.37821411 49.52642893 -1.21836778 9724 447 0 1.00000000 1.00000000 1.00000000
H 18.09113851 50.13604683 0.42922682 9725 447 0 1.00000000 1.00000000 1.00000000
H 20.23537841 49.84197473 0.42036273 9726 447 0 1.00000000 1.00000000 1.00000000
H 20.05371847 51.58867416 0.42110958 9727 447 0 1.00000000 1.00000000 1.00000000
H 20.92137047 51.48445649 -1.77013557 9728 447 0 1.00000000 1.00000000 1.00000000
H 20.68373682 49.88337915 -2.03751735 9729 447 0 1.00000000 1.00000000 1.00000000
H 22.62906568 49.39836793 -0.28688796 9730 447 0 1.00000000 1.00000000 1.00000000
H 23.00834428 51.15166227 -0.41326047 9731 447 0 1.00000000 1.00000000 1.00000000
H 24.25355840 49.65657984 -2.21368286 9732 447 0 1.00000000 1.00000000 1.00000000
H 23.44208611 50.93549683 -2.85848538 9733 447 0 1.00000000 1.00000000 1.00000000
H 22.84389815 49.30233549 -3.00280802 9734 447 0 1.00000000 1.00000000 1.00000000
C 25.85546846 42.85909319 26.09075599 9735 448 0 0.56500000 0.56500000 0.56500000
C 25.70075458 44.30667292 25.59173526 9736 448 0 0.56500000 0.56500000 0.56500000
C 26.01534749 44.66958805 24.10312525 9737 448 0 0.56500000 0.56500000 0.56500000
C 25.50183810 46.05135163 23.69734158 9738 448 0 0.56500000 0.56500000 0.56500000
C 26.48045025 47.19485320 24.01798574 9739 448 0 0.56500000 0.56500000 0.56500000
C 26.65652014 47.53276731 25.53834797 9740 448 0 0.56500000 0.56500000 0.56500000
C 27.35346824 48.88084983 25.72281382 9741 448 0 0.56500000 0.56500000 0.56500000
H 25.85754572 42.71876885 27.18284234 9742 448 0 1.00000000 1.00000000 1.00000000
H 26.79389842 42.43341620 25.65961154 9743 448 0 1.00000000 1.00000000 1.00000000
H 25.08287096 42.24783620 25.72347813 9744 448 0 1.00000000 1.00000000 1.00000000
H 26.36480188 44.95687180 26.25066557 9745 448 0 1.00000000 1.00000000 1.00000000
H 24.63435790 44.54927613 25.81676920 9746 448 0 1.00000000 1.00000000 1.00000000
H 25.57995417 43.84233376 23.57127391 9747 448 0 1.00000000 1.00000000 1.00000000
H 27.09926117 44.62237256 23.92068262 9748 448 0 1.00000000 1.00000000 1.00000000
H 24.56979644 46.26161334 24.26579445 9749 448 0 1.00000000 1.00000000 1.00000000
H 25.19740604 46.07149978 22.59695770 9750 448 0 1.00000000 1.00000000 1.00000000
H 26.13609578 48.04424093 23.55116291 9751 448 0 1.00000000 1.00000000 1.00000000
H 27.47026218 46.92531081 23.50144826 9752 448 0 1.00000000 1.00000000 1.00000000
H 27.27795890 46.74622780 25.88948005 9753 448 0 1.00000000 1.00000000 1.00000000
H 25.71596521 47.48681791 26.07002494 9754 448 0 1.00000000 1.00000000 1.00000000
H 27.71715722 49.07438682 26.80776685 9755 448 0 1.00000000 1.00000000 1.00000000
H 26.78503363 49.67504071 25.31763310 9756 448 0 1.00000000 1.00000000 1.00000000
H 28.29653804 48.91402460 25.14179225 9757 448 0 1.00000000 1.00000000 1.00000000
C 45.12100219 9.71852705 34.13014211 9758 449 0 0.56500000 0.56500000 0.56500000
C 45.77254272 9.99346350 35.44481813 9759 449 0 0.56500000 0.56500000 0.56500000
C 44.83212989 10.58411331 36.47022485 9760 449 0 0.56500000 0.56500000 0.56500000
C 45.63040993 11.21681566 37.55554428 9761 449 0 0.56500000 0.56500000 0.56500000
C 44.92031082 11.58077845 38.85155311 9762 449 0 0.56500000 0.56500000 0.56500000
C 44.08450463 12.87780519 38.96828168 9763 449 0 0.56500000 0.56500000 0.56500000
C 43.00597326 13.07214045 37.89956895 9764 449 0 0.56500000 0.56500000 0.56500000
H 44.29808539 9.00371725 34.38890315 9765 449 0 1.00000000 1.00000000 1.00000000
H 45.69727875 9.33371491 33.30165823 9766 449 0 1.00000000 1.00000000 1.00000000
H 44.54642276 10.57854654 33.74361821 9767 449 0 1.00000000 1.00000000 1.00000000
H 46.65396354 10.63876143 35.48253048 9768 449 0 1.00000000 1.00000000 1.00000000
H 46.18193172 8.98418974 35.68545419 9769 449 0 1.00000000 1.00000000 1.00000000
H 44.05126612 9.86444212 36.77198811 9770 449 0 1.00000000 1.00000000 1.00000000
H 44.27182023 11.32650344 35.90889222 9771 449 0 1.00000000 1.00000000 1.00000000
H 46.20032719 12.05414610 37.11156009 9772 449 0 1.00000000 1.00000000 1.00000000
H 46.51701336 10.53468515 37.70038561 9773 449 0 1.00000000 1.00000000 1.00000000
H 45.64779904 11.59128009 39.65303095 9774 449 0 1.00000000 1.00000000 1.00000000
H 44.25633150 10.63596035 39.09024118 9775 449 0 1.00000000 1.00000000 1.00000000
H 44.91181656 13.51875809 38.77711044 9776 449 0 1.00000000 1.00000000 1.00000000
H 43.62901757 13.07776201 39.96509823 9777 449 0 1.00000000 1.00000000 1.00000000
H 43.51759066 13.38697177 36.97934247 9778 449 0 1.00000000 1.00000000 1.00000000
H 42.40248747 13.87035508 38.18070741 9779 449 0 1.00000000 1.00000000 1.00000000
H 42.37955858 12.21718838 37.61631635 9780 449 0 1.00000000 1.00000000 1.00000000
C 39.45223328 47.42925237 0.43215439 9781 450 0 0.56500000 0.56500000 0.56500000
C 38.28724380 48.01374334 1.28542615 9782 450 0 0.56500000 0.56500000 0.56500000
C 38.51513417 49.52226239 1.47981251 9783 450 0 0.56500000 0.56500000 0.56500000
C 38.29603838 50.44635003 0.26998441 9784 450 0 0.56500000 0.56500000 0.56500000
C 36.95453235 50.30792675 -0.46531915 9785 450 0 0.56500000 0.56500000 0.56500000
C 35.69528876 50.32781489 0.34203047 9786 450 0 0.56500000 0.56500000 0.56500000
C 34.49874052 50.58884514 -0.61242370 9787 450 0 0.56500000 0.56500000 0.56500000
H 40.37938239 47.60980358 1.06950235 9788 450 0 1.00000000 1.00000000 1.00000000
H 39.47916230 47.74626582 -0.58811989 9789 450 0 1.00000000 1.00000000 1.00000000
H 39.44803259 46.35226658 0.26284299 9790 450 0 1.00000000 1.00000000 1.00000000
H 38.22930753 47.52783492 2.27043063 9791 450 0 1.00000000 1.00000000 1.00000000
H 37.38311687 47.73240084 0.77777564 9792 450 0 1.00000000 1.00000000 1.00000000
H 39.51613216 49.57904181 1.93621873 9793 450 0 1.00000000 1.00000000 1.00000000
H 37.73831928 49.83290287 2.23544949 9794 450 0 1.00000000 1.00000000 1.00000000
H 39.25734695 50.32279977 -0.34284172 9795 450 0 1.00000000 1.00000000 1.00000000
H 38.23924651 51.46299855 0.71214341 9796 450 0 1.00000000 1.00000000 1.00000000
H 36.92911019 49.36131940 -1.09197391 9797 450 0 1.00000000 1.00000000 1.00000000
H 36.85646170 51.10082749 -1.15832920 9798 450 0 1.00000000 1.00000000 1.00000000
H 35.76784767 51.06958094 1.22198196 9799 450 0 1.00000000 1.00000000 1.00000000
H 35.41191577 49.37852216 0.78881109 9800 450 0 1.00000000 1.00000000 1.00000000
H 33.53057813 50.45098438 -0.14742013 9801 450 0 1.00000000 1.00000000 1.00000000
H 34.50658162 50.03297260 -1.56519495 9802 450 0 1.00000000 1.00000000 1.00000000
H 34.45108548 51.66281175 -0.99215504 9803 450 0 1.00000000 1.00000000 1.00000000
C 20.65409383 43.67996428 13.93171614 9804 451 0 0.56500000 0.56500000 0.56500000
C 19.35379162 43.06298749 13.38495131 9805 451 0 0.56500000 0.56500000 0.56500000
C 19.35722340 42.73034867 11.88764459 9806 451 0 0.56500000 0.56500000 0.56500000
C 20.19860480 41.48463860 11.48960825 9807 451 0 0.56500000 0.56500000 0.56500000
C 19.58961611 40.15600607 11.98769690 9808 451 0 0.56500000 0.56500000 0.56500000
C 20.36265880 38.95742500 11.45621672 9809 451 0 0.56500000 0.56500000 0.56500000
C 20.13140516 38.40121821 10.01246244 9810 451 0 0.56500000 0.56500000 0.56500000
H 20.57328119 43.86624165 14.97959855 9811 451 0 1.00000000 1.00000000 1.00000000
H 21.01374937 44.65939293 13.59068168 9812 451 0 1.00000000 1.00000000 1.00000000
H 21.47052768 42.97310441 13.78242946 9813 451 0 1.00000000 1.00000000 1.00000000
H 18.49095956 43.69451262 13.52408892 9814 451 0 1.00000000 1.00000000 1.00000000
H 19.18390118 42.10620142 14.06616423 9815 451 0 1.00000000 1.00000000 1.00000000
H 19.76111162 43.62271053 11.41232627 9816 451 0 1.00000000 1.00000000 1.00000000
H 18.33993383 42.55558191 11.55140950 9817 451 0 1.00000000 1.00000000 1.00000000
H 21.23442655 41.52728775 11.76627476 9818 451 0 1.00000000 1.00000000 1.00000000
H 20.24772739 41.38176003 10.39928786 9819 451 0 1.00000000 1.00000000 1.00000000
H 18.56096444 40.04577325 11.51254537 9820 451 0 1.00000000 1.00000000 1.00000000
H 19.52780625 40.14661697 13.06329709 9821 451 0 1.00000000 1.00000000 1.00000000
H 20.10568520 38.04129525 12.10752175 9822 451 0 1.00000000 1.00000000 1.00000000
H 21.42930753 39.24288819 11.64712373 9823 451 0 1.00000000 1.00000000 1.00000000
H 20.07201264 39.23463012 9.28272946 9824 451 0 1.00000000 1.00000000 1.00000000
H 19.19379179 37.83779989 9.98011754 9825 451 0 1.00000000 1.00000000 1.00000000
H 20.84705255 37.65143989 9.69592174 9826 451 0 1.00000000 1.00000000 1.00000000
C 5.66748775 35.80512611 14.19054490 9827 452 0 0.56500000 0.56500000 0.56500000
C 5.92912857 34.95763141 12.94956201 9828 452 0 0.56500000 0.56500000 0.56500000
C 5.14320112 33.64186978 12.94031118 9829 452 0 0.56500000 0.56500000 0.56500000
C 5.21459477 32.93606876 11.63760351 9830 452 0 0.56500000 0.56500000 0.56500000
C 4.42506036 33.67999361 10.53442401 9831 452 0 0.56500000 0.56500000 0.56500000
C 5.35269432 34.16940706 9.35701918 9832 452 0 0.56500000 0.56500000 0.56500000
C 4.60922129 35.00317858 8.39017523 9833 452 0 0.56500000 0.56500000 0.56500000
H 6.10623736 35.26497900 15.09202090 9834 452 0 1.00000000 1.00000000 1.00000000
H 4.62411866 35.95713625 14.34939977 9835 452 0 1.00000000 1.00000000 1.00000000
H 6.00722499 36.79486426 14.09018213 9836 452 0 1.00000000 1.00000000 1.00000000
H 6.99848655 34.58253419 12.92730532 9837 452 0 1.00000000 1.00000000 1.00000000
H 5.65954022 35.51766771 12.08533671 9838 452 0 1.00000000 1.00000000 1.00000000
H 4.09414049 33.87143998 13.15181634 9839 452 0 1.00000000 1.00000000 1.00000000
H 5.50169428 33.00706411 13.75284687 9840 452 0 1.00000000 1.00000000 1.00000000
H 4.96464243 31.88258807 11.74447763 9841 452 0 1.00000000 1.00000000 1.00000000
H 6.27196585 32.85406652 11.35062235 9842 452 0 1.00000000 1.00000000 1.00000000
H 4.01069411 34.56019555 10.94042188 9843 452 0 1.00000000 1.00000000 1.00000000
H 3.66334520 33.06757572 10.10154511 9844 452 0 1.00000000 1.00000000 1.00000000
H 5.88107854 33.39263335 8.79885583 9845 452 0 1.00000000 1.00000000 1.00000000
H 6.19066769 34.88452994 9.84572869 9846 452 0 1.00000000 1.00000000 1.00000000
H 4.32990877 36.05311774 8.69142849 9847 452 0 1.00000000 1.00000000 1.00000000
H 3.63492908 34.66291125 8.07199994 9848 452 0 1.00000000 1.00000000 1.00000000
H 5.13167993 35.14500225 7.39907998 9849 452 0 1.00000000 1.00000000 1.00000000
C 43.33772568 39.94678358 16.97545003 9850 453 0 0.56500000 0.56500000 0.56500000
C 43.05383362 41.38105092 16.63911242 9851 453 0 0.56500000 0.56500000 0.56500000
C 43.10424668 41.62911347 15.08192624 9852 453 0 0.56500000 0.56500000 0.56500000
C 42.47185854 43.05993627 14.62129834 9853 453 0 0.56500000 0.56500000 0.56500000
C 42.38243315 43.27268658 13.10925990 9854 453 0 0.56500000 0.56500000 0.56500000
C 43.72134177 43.28850014 12.38392885 9855 453 0 0.56500000 0.56500000 0.56500000
C 43.47588780 43.28001605 10.86657988 9856 453 0 0.56500000 0.56500000 0.56500000
H 43.56373203 39.83697085 18.04639042 9857 453 0 1.00000000 1.00000000 1.00000000
H 44.16505477 39.49159569 16.34937452 9858 453 0 1.00000000 1.00000000 1.00000000
H 42.44257753 39.28380713 16.75784717 9859 453 0 1.00000000 1.00000000 1.00000000
H 43.95751592 41.89217540 17.02334721 9860 453 0 1.00000000 1.00000000 1.00000000
H 42.21754376 41.87799163 17.11730515 9861 453 0 1.00000000 1.00000000 1.00000000
H 42.43132250 40.85354766 14.58918421 9862 453 0 1.00000000 1.00000000 1.00000000
H 44.09935993 41.51061800 14.76322774 9863 453 0 1.00000000 1.00000000 1.00000000
H 42.99453481 43.90349820 15.08847182 9864 453 0 1.00000000 1.00000000 1.00000000
H 41.47147893 43.14098045 15.05549992 9865 453 0 1.00000000 1.00000000 1.00000000
H 41.97294587 44.28784257 12.97350218 9866 453 0 1.00000000 1.00000000 1.00000000
H 41.74000156 42.46636645 12.56224893 9867 453 0 1.00000000 1.00000000 1.00000000
H 44.26883255 42.35331941 12.55808374 9868 453 0 1.00000000 1.00000000 1.00000000
H 44.45785428 44.00526301 12.70617351 9869 453 0 1.00000000 1.00000000 1.00000000
H 43.00109291 44.20479558 10.58125327 9870 453 0 1.00000000 1.00000000 1.00000000
H 42.78268559 42.47554713 10.63397936 9871 453 0 1.00000000 1.00000000 1.00000000
H 44.36992766 43.16546020 10.26898938 9872 453 0 1.00000000 1.00000000 1.00000000
C 7.77137747 45.33586744 38.67669049 9873 454 0 0.56500000 0.56500000 0.56500000
C 8.91731687 46.25231668 39.09655479 9874 454 0 0.56500000 0.56500000 0.56500000
C 8.48148461 47.57176388 39.77217071 9875 454 0 0.56500000 0.56500000 0.56500000
C 9.55194243 48.65864801 39.84720244 9876 454 0 0.56500000 0.56500000 0.56500000
C 9.29652922 49.78800500 40.81883417 9877 454 0 0.56500000 0.56500000 0.56500000
C 10.21649818 50.96932034 40.72586086 9878 454 0 0.56500000 0.56500000 0.56500000
C 11.69026274 50.68000729 40.88308727 9879 454 0 0.56500000 0.56500000 0.56500000
H 7.04985369 45.85466260 38.07171282 9880 454 0 1.00000000 1.00000000 1.00000000
H 7.21480014 45.04657142 39.54566506 9881 454 0 1.00000000 1.00000000 1.00000000
H 8.09042299 44.40973232 38.16214172 9882 454 0 1.00000000 1.00000000 1.00000000
H 9.52496232 46.49274859 38.16592018 9883 454 0 1.00000000 1.00000000 1.00000000
H 9.66242999 45.74948887 39.74602143 9884 454 0 1.00000000 1.00000000 1.00000000
H 8.30516222 47.25666467 40.83407997 9885 454 0 1.00000000 1.00000000 1.00000000
H 7.60299315 48.03863932 39.45351280 9886 454 0 1.00000000 1.00000000 1.00000000
H 9.60785775 49.05578884 38.79656772 9887 454 0 1.00000000 1.00000000 1.00000000
H 10.59653069 48.28305664 40.00180630 9888 454 0 1.00000000 1.00000000 1.00000000
H 9.24942168 49.42551134 41.86531505 9889 454 0 1.00000000 1.00000000 1.00000000
H 8.27412010 50.16149799 40.61800395 9890 454 0 1.00000000 1.00000000 1.00000000
H 9.82521909 51.68183435 41.43397070 9891 454 0 1.00000000 1.00000000 1.00000000
H 10.13531034 51.45752985 39.68836017 9892 454 0 1.00000000 1.00000000 1.00000000
H 11.92746648 49.82331417 40.16508997 9893 454 0 1.00000000 1.00000000 1.00000000
H 12.12453193 50.33952573 41.81513475 9894 454 0 1.00000000 1.00000000 1.00000000
H 12.32784152 51.52455083 40.60246576 9895 454 0 1.00000000 1.00000000 1.00000000
C 31.93018490 6.42215429 -3.32379851 9896 455 0 0.56500000 0.56500000 0.56500000
C 33.18793846 6.99196043 -2.50009316 9897 455 0 0.56500000 0.56500000 0.56500000
C 33.52133191 8.43563228 -2.79583380 9898 455 0 0.56500000 0.56500000 0.56500000
C 32.41268519 9.51199821 -2.61278093 9899 455 0 0.56500000 0.56500000 0.56500000
C 32.92383146 10.90592911 -2.68746564 9900 455 0 0.56500000 0.56500000 0.56500000
C 33.45107667 11.34948009 -4.03936486 9901 455 0 0.56500000 0.56500000 0.56500000
C 33.57725141 12.92666521 -4.08199486 9902 455 0 0.56500000 0.56500000 0.56500000
H 31.13262346 7.14851732 -3.25542195 9903 455 0 1.00000000 1.00000000 1.00000000
H 31.60979132 5.38255497 -3.02185189 9904 455 0 1.00000000 1.00000000 1.00000000
H 32.22244694 6.22046254 -4.37095005 9905 455 0 1.00000000 1.00000000 1.00000000
H 34.11187659 6.37671298 -2.61560446 9906 455 0 1.00000000 1.00000000 1.00000000
H 32.89850948 6.89618656 -1.47890709 9907 455 0 1.00000000 1.00000000 1.00000000
H 33.95451481 8.60380335 -3.80193153 9908 455 0 1.00000000 1.00000000 1.00000000
H 34.30706824 8.56583532 -2.06709082 9909 455 0 1.00000000 1.00000000 1.00000000
H 31.90883123 9.35274904 -1.66931442 9910 455 0 1.00000000 1.00000000 1.00000000
H 31.63397887 9.52078438 -3.32899017 9911 455 0 1.00000000 1.00000000 1.00000000
H 33.78590623 10.97921700 -2.02825746 9912 455 0 1.00000000 1.00000000 1.00000000
H 32.22771452 11.69692841 -2.27955666 9913 455 0 1.00000000 1.00000000 1.00000000
H 32.61961221 11.12986016 -4.74636527 9914 455 0 1.00000000 1.00000000 1.00000000
H 34.34550958 10.83533525 -4.28147449 9915 455 0 1.00000000 1.00000000 1.00000000
H 34.02994434 13.29106698 -3.15368626 9916 455 0 1.00000000 1.00000000 1.00000000
H 32.57551708 13.33397778 -4.18795922 9917 455 0 1.00000000 1.00000000 1.00000000
H 34.14927305 13.37759018 -4.94637262 9918 455 0 1.00000000 1.00000000 1.00000000
C 43.23191138 36.71369276 8.83766760 9919 456 0 0.56500000 0.56500000 0.56500000
C 42.23157575 35.92810688 8.01455918 9920 456 0 0.56500000 0.56500000 0.56500000
C 41.94554338 34.48722377 8.43566265 9921 456 0 0.56500000 0.56500000 0.56500000
C 41.65357465 33.44340964 7.39406660 9922 456 0 0.56500000 0.56500000 0.56500000
C 40.35346523 33.42341670 6.57522753 9923 456 0 0.56500000 0.56500000 0.56500000
C 40.16136007 34.56503661 5.52600164 9924 456 0 0.56500000 0.56500000 0.56500000
C 39.03632900 34.37607917 4.51567890 9925 456 0 0.56500000 0.56500000 0.56500000
H 43.47818502 37.72445709 8.46303781 9926 456 0 1.00000000 1.00000000 1.00000000
H 44.10183491 36.17117680 9.02516311 9927 456 0 1.00000000 1.00000000 1.00000000
H 42.72602968 36.72691616 9.89441661 9928 456 0 1.00000000 1.00000000 1.00000000
H 42.64766367 35.88503414 6.93926933 9929 456 0 1.00000000 1.00000000 1.00000000
H 41.27819678 36.46495127 7.96622805 9930 456 0 1.00000000 1.00000000 1.00000000
H 40.92837568 34.46594766 9.00183026 9931 456 0 1.00000000 1.00000000 1.00000000
H 42.69688881 34.11967926 9.20707895 9932 456 0 1.00000000 1.00000000 1.00000000
H 41.75274171 32.41788398 7.83069416 9933 456 0 1.00000000 1.00000000 1.00000000
H 42.43198165 33.43009206 6.58272515 9934 456 0 1.00000000 1.00000000 1.00000000
H 39.44949731 33.57814140 7.24487325 9935 456 0 1.00000000 1.00000000 1.00000000
H 40.29041624 32.47288397 5.96966722 9936 456 0 1.00000000 1.00000000 1.00000000
H 41.06565924 34.59424241 4.92923942 9937 456 0 1.00000000 1.00000000 1.00000000
H 40.13786665 35.55291043 5.96151938 9938 456 0 1.00000000 1.00000000 1.00000000
H 38.87245835 35.17336069 3.80465404 9939 456 0 1.00000000 1.00000000 1.00000000
H 38.14438031 34.26077907 5.13790192 9940 456 0 1.00000000 1.00000000 1.00000000
H 39.16672319 33.46497609 3.88266279 9941 456 0 1.00000000 1.00000000 1.00000000
C 36.89969822 21.07034185 14.51853254 9942 457 0 0.56500000 0.56500000 0.56500000
C 35.52377901 20.62721838 15.22630387 9943 457 0 0.56500000 0.56500000 0.56500000
C 35.27740569 19.16495775 15.04215644 9944 457 0 0.56500000 0.56500000 0.56500000
C 35.79370971 18.19407214 16.06053045 9945 457 0 0.56500000 0.56500000 0.56500000
C 35.56379598 16.78058403 15.57503335 9946 457 0 0.56500000 0.56500000 0.56500000
C 35.89879749 15.60226708 16.48120908 9947 457 0 0.56500000 0.56500000 0.56500000
C 35.33545838 14.31690627 15.94465227 9948 457 0 0.56500000 0.56500000 0.56500000
H 36.85771665 21.04903903 13.42561602 9949 457 0 1.00000000 1.00000000 1.00000000
H 37.86721391 20.53379527 14.89791750 9950 457 0 1.00000000 1.00000000 1.00000000
H 37.13179880 22.19991144 14.70288278 9951 457 0 1.00000000 1.00000000 1.00000000
H 34.67196200 21.17360525 14.78517752 9952 457 0 1.00000000 1.00000000 1.00000000
H 35.67871608 20.84012884 16.29737227 9953 457 0 1.00000000 1.00000000 1.00000000
H 35.66547631 18.89979733 14.06001101 9954 457 0 1.00000000 1.00000000 1.00000000
H 34.25949474 18.85181265 15.02268222 9955 457 0 1.00000000 1.00000000 1.00000000
H 35.23294939 18.47606242 17.00134918 9956 457 0 1.00000000 1.00000000 1.00000000
H 36.89959562 18.33703554 16.26258576 9957 457 0 1.00000000 1.00000000 1.00000000
H 36.14060718 16.66518957 14.62764934 9958 457 0 1.00000000 1.00000000 1.00000000
H 34.45730067 16.75752518 15.40956905 9959 457 0 1.00000000 1.00000000 1.00000000
H 35.55083052 15.81698985 17.47577394 9960 457 0 1.00000000 1.00000000 1.00000000
H 36.99669779 15.51397884 16.65299030 9961 457 0 1.00000000 1.00000000 1.00000000
H 35.67182279 13.46795091 16.50962698 9962 457 0 1.00000000 1.00000000 1.00000000
H 35.80990871 14.20567732 14.94804502 9963 457 0 1.00000000 1.00000000 1.00000000
H 34.25458028 14.37846287 15.74725788 9964 457 0 1.00000000 1.00000000 1.00000000
C 4.00479220 4.47091298 15.11104936 9965 458 0 0.56500000 0.56500000 0.56500000
C 4.02037659 4.08117141 16.57672666 9966 458 0 0.56500000 0.56500000 0.56500000
C 4.91487820 4.94552210 17.44899952 9967 458 0 0.56500000 0.56500000 0.56500000
C 4.48933633 6.42851972 17.39680492 9968 458 0 0.56500000 0.56500000 0.56500000
C 5.35550692 7.14772647 18.40119390 9969 458 0 0.56500000 0.56500000 0.56500000
C 5.35529164 8.67975908 18.29308170 9970 458 0 0.56500000 0.56500000 0.56500000
C 5.84106745 9.33777014 19.67012238 9971 458 0 0.56500000 0.56500000 0.56500000
H 3.45962654 5.43584881 14.98352440 9972 458 0 1.00000000 1.00000000 1.00000000
H 3.55375534 3.76419056 14.44818128 9973 458 0 1.00000000 1.00000000 1.00000000
H 4.95372720 4.82513139 14.78220370 9974 458 0 1.00000000 1.00000000 1.00000000
H 4.35312296 2.99495422 16.67251612 9975 458 0 1.00000000 1.00000000 1.00000000
H 2.92652631 4.08757125 16.93703582 9976 458 0 1.00000000 1.00000000 1.00000000
H 5.95278866 4.85618076 17.11095941 9977 458 0 1.00000000 1.00000000 1.00000000
H 4.82528786 4.58508606 18.48080759 9978 458 0 1.00000000 1.00000000 1.00000000
H 3.48748877 6.53007461 17.57624594 9979 458 0 1.00000000 1.00000000 1.00000000
H 4.63726343 6.79533230 16.40757864 9980 458 0 1.00000000 1.00000000 1.00000000
H 6.35839001 6.78329658 18.33259955 9981 458 0 1.00000000 1.00000000 1.00000000
H 4.91827844 6.87202000 19.31891491 9982 458 0 1.00000000 1.00000000 1.00000000
H 4.35707068 8.91314855 18.05581293 9983 458 0 1.00000000 1.00000000 1.00000000
H 6.02622358 9.07873456 17.49699349 9984 458 0 1.00000000 1.00000000 1.00000000
H 6.83118118 9.08000590 19.82070173 9985 458 0 1.00000000 1.00000000 1.00000000
H 5.21818317 8.76325164 20.40822678 9986 458 0 1.00000000 1.00000000 1.00000000
H 5.55190547 10.35804504 19.72176877 9987 458 0 1.00000000 1.00000000 1.00000000
C 37.21153265 12.60747054 -2.15301006 9988 459 0 0.56500000 0.56500000 0.56500000
C 36.74151791 12.52201689 -0.72985985 9989 459 0 0.56500000 0.56500000 0.56500000
C 37.72348068 13.08350210 0.29926273 9990 459 0 0.56500000 0.56500000 0.56500000
C 37.45417994 12.64832007 1.69150227 9991 459 0 0.56500000 0.56500000 0.56500000
C 38.76908294 12.72335676 2.52769323 9992 459 0 0.56500000 0.56500000 0.56500000
C 38.54201321 12.39659432 3.93923456 9993 459 0 0.56500000 0.56500000 0.56500000
C 39.77686006 12.77229886 4.78664844 9994 459 0 0.56500000 0.56500000 0.56500000
H 38.20308177 12.12001967 -2.24074979 9995 459 0 1.00000000 1.00000000 1.00000000
H 37.40185183 13.64206837 -2.43736107 9996 459 0 1.00000000 1.00000000 1.00000000
H 36.46484505 12.27723823 -2.85677505 9997 459 0 1.00000000 1.00000000 1.00000000
H 36.57683351 11.44723159 -0.43121739 9998 459 0 1.00000000 1.00000000 1.00000000
H 35.75602804 13.01532683 -0.56702018 9999 459 0 1.00000000 1.00000000 1.00000000
H 37.78599544 14.17597200 0.17855563 10000 459 0 1.00000000 1.00000000 1.00000000
H 38.76070293 12.66281294 0.00063852 10001 459 0 1.00000000 1.00000000 1.00000000
H 37.07360149 11.62605763 1.76037729 10002 459 0 1.00000000 1.00000000 1.00000000
H 36.72489083 13.26486657 2.19623465 10003 459 0 1.00000000 1.00000000 1.00000000
H 39.17642904 13.71180136 2.38417960 10004 459 0 1.00000000 1.00000000 1.00000000
H 39.49837346 12.02731012 2.09594849 10005 459 0 1.00000000 1.00000000 1.00000000
H 38.02623082 11.46510648 4.04591287 10006 459 0 1.00000000 1.00000000 1.00000000
H 37.77195117 13.09156725 4.30290999 10007 459 0 1.00000000 1.00000000 1.00000000
H 39.97481121 13.82776813 4.50195391 10008 459 0 1.00000000 1.00000000 1.00000000
H 40.66566052 12.11473870 4.59110924 10009 459 0 1.00000000 1.00000000 1.00000000
H 39.47924796 12.74817562 5.82770626 10010 459 0 1.00000000 1.00000000 1.00000000
C 30.47969349 14.78275955 34.66647069 10011 460 0 0.56500000 0.56500000 0.56500000
C 31.18176545 14.36149736 33.38473826 10012 460 0 0.56500000 0.56500000 0.56500000
C 30.30887548 14.31352714 32.14499118 10013 460 0 0.56500000 0.56500000 0.56500000
C 31.06352702 14.17717734 30.86668269 10014 460 0 0.56500000 0.56500000 0.56500000
C 30.19131426 14.74147245 29.73311130 10015 460 0 0.56500000 0.56500000 0.56500000
C 30.93712795 14.78447998 28.37530003 10016 460 0 0.56500000 0.56500000 0.56500000
C 31.18548657 13.55648443 27.62633382 10017 460 0 0.56500000 0.56500000 0.56500000
H 31.07001035 15.48651480 35.23369057 10018 460 0 1.00000000 1.00000000 1.00000000
H 30.30078142 13.89280796 35.27484597 10019 460 0 1.00000000 1.00000000 1.00000000
H 29.49781814 15.26263519 34.49445541 10020 460 0 1.00000000 1.00000000 1.00000000
H 31.70742381 13.37886429 33.61205942 10021 460 0 1.00000000 1.00000000 1.00000000
H 32.02796589 15.06700593 33.13840744 10022 460 0 1.00000000 1.00000000 1.00000000
H 29.69823131 15.18753396 31.93992921 10023 460 0 1.00000000 1.00000000 1.00000000
H 29.60979245 13.55255179 32.14017200 10024 460 0 1.00000000 1.00000000 1.00000000
H 31.38587321 13.21597674 30.59251587 10025 460 0 1.00000000 1.00000000 1.00000000
H 31.89286986 14.84146371 30.81395158 10026 460 0 1.00000000 1.00000000 1.00000000
H 29.86921463 15.73785125 30.08056583 10027 460 0 1.00000000 1.00000000 1.00000000
H 29.28957227 14.05611417 29.68197136 10028 460 0 1.00000000 1.00000000 1.00000000
H 31.96808403 15.19888205 28.54068851 10029 460 0 1.00000000 1.00000000 1.00000000
H 30.39247667 15.46051288 27.62574205 10030 460 0 1.00000000 1.00000000 1.00000000
H 30.25925378 13.23238816 27.23224702 10031 460 0 1.00000000 1.00000000 1.00000000
H 31.57678565 12.74160554 28.27620450 10032 460 0 1.00000000 1.00000000 1.00000000
H 31.75950349 13.70750983 26.75035835 10033 460 0 1.00000000 1.00000000 1.00000000
C 42.05372450 21.65471048 2.40964312 10034 461 0 0.56500000 0.56500000 0.56500000
C 43.15465571 22.69248547 2.44179070 10035 461 0 0.56500000 0.56500000 0.56500000
C 43.15377559 23.76271813 3.50543099 10036 461 0 0.56500000 0.56500000 0.56500000
C 41.88100770 24.57001221 3.89941569 10037 461 0 0.56500000 0.56500000 0.56500000
C 42.08754412 25.68417886 4.93157219 10038 461 0 0.56500000 0.56500000 0.56500000
C 41.71549251 27.15714649 4.43920371 10039 461 0 0.56500000 0.56500000 0.56500000
C 42.69109700 27.43203536 3.28313856 10040 461 0 0.56500000 0.56500000 0.56500000
H 42.11100834 20.98344925 3.28533899 10041 461 0 1.00000000 1.00000000 1.00000000
H 42.21415075 21.04034065 1.50560390 10042 461 0 1.00000000 1.00000000 1.00000000
H 41.06087161 22.00720322 2.36970642 10043 461 0 1.00000000 1.00000000 1.00000000
H 43.24957503 23.13710652 1.44438423 10044 461 0 1.00000000 1.00000000 1.00000000
H 44.09922252 22.10252564 2.59124096 10045 461 0 1.00000000 1.00000000 1.00000000
H 43.95370826 24.46620527 3.19561788 10046 461 0 1.00000000 1.00000000 1.00000000
H 43.64784691 23.36482130 4.37834420 10047 461 0 1.00000000 1.00000000 1.00000000
H 41.07496207 23.84867449 4.22199800 10048 461 0 1.00000000 1.00000000 1.00000000
H 41.35305355 24.97036135 2.98360745 10049 461 0 1.00000000 1.00000000 1.00000000
H 43.07928102 25.76879650 5.39007561 10050 461 0 1.00000000 1.00000000 1.00000000
H 41.53795238 25.37729614 5.91497873 10051 461 0 1.00000000 1.00000000 1.00000000
H 41.72719965 27.87246318 5.26361564 10052 461 0 1.00000000 1.00000000 1.00000000
H 40.71500429 27.10768865 3.95995441 10053 461 0 1.00000000 1.00000000 1.00000000
H 42.42102233 28.27757271 2.64170107 10054 461 0 1.00000000 1.00000000 1.00000000
H 42.71105801 26.56708227 2.60328065 10055 461 0 1.00000000 1.00000000 1.00000000
H 43.64373502 27.67047152 3.66445694 10056 461 0 1.00000000 1.00000000 1.00000000
C 7.69816504 21.42999628 12.22225657 10057 462 0 0.56500000 0.56500000 0.56500000
C 7.86753366 21.65084061 10.71649848 10058 462 0 0.56500000 0.56500000 0.56500000
C 7.21925326 22.94139396 10.30775282 10059 462 0 0.56500000 0.56500000 0.56500000
C 6.83234516 22.89478902 8.82825192 10060 462 0 0.56500000 0.56500000 0.56500000
C 6.04294991 24.11864301 8.38470390 10061 462 0 0.56500000 0.56500000 0.56500000
C 4.80070386 24.44008237 9.22426138 10062 462 0 0.56500000 0.56500000 0.56500000
C 3.71152272 25.23580976 8.43599198 10063 462 0 0.56500000 0.56500000 0.56500000
H 6.65830407 21.34454996 12.56457027 10064 462 0 1.00000000 1.00000000 1.00000000
H 8.03206232 22.30602017 12.73035603 10065 462 0 1.00000000 1.00000000 1.00000000
H 8.24224619 20.53740318 12.48520650 10066 462 0 1.00000000 1.00000000 1.00000000
H 7.41120130 20.79535117 10.18470063 10067 462 0 1.00000000 1.00000000 1.00000000
H 8.92486431 21.75056172 10.54850665 10068 462 0 1.00000000 1.00000000 1.00000000
H 7.86091937 23.88045910 10.40792234 10069 462 0 1.00000000 1.00000000 1.00000000
H 6.41331187 23.15437238 11.00136432 10070 462 0 1.00000000 1.00000000 1.00000000
H 6.33782009 21.96639850 8.70663344 10071 462 0 1.00000000 1.00000000 1.00000000
H 7.79825119 22.83654873 8.25791485 10072 462 0 1.00000000 1.00000000 1.00000000
H 5.83612011 24.01632764 7.33050722 10073 462 0 1.00000000 1.00000000 1.00000000
H 6.68581202 25.00947954 8.37379731 10074 462 0 1.00000000 1.00000000 1.00000000
H 5.02861849 25.13689119 10.01437949 10075 462 0 1.00000000 1.00000000 1.00000000
H 4.32077104 23.54974581 9.62581002 10076 462 0 1.00000000 1.00000000 1.00000000
H 3.03586004 25.80774270 8.99765518 10077 462 0 1.00000000 1.00000000 1.00000000
H 3.19711008 24.61553845 7.67648245 10078 462 0 1.00000000 1.00000000 1.00000000
H 4.25587702 26.00863492 7.84383276 10079 462 0 1.00000000 1.00000000 1.00000000
C 16.84175057 38.83301812 16.15302516 10080 463 0 0.56500000 0.56500000 0.56500000
C 17.29572094 40.06130766 15.52672310 10081 463 0 0.56500000 0.56500000 0.56500000
C 16.30611372 41.21857513 15.66085177 10082 463 0 0.56500000 0.56500000 0.56500000
C 15.16398607 41.11043337 14.70367061 10083 463 0 0.56500000 0.56500000 0.56500000
C 13.96113420 41.92260303 15.13878164 10084 463 0 0.56500000 0.56500000 0.56500000
C 12.95475943 41.12194587 15.89083125 10085 463 0 0.56500000 0.56500000 0.56500000
C 11.53622055 41.75522924 16.16478724 10086 463 0 0.56500000 0.56500000 0.56500000
H 15.82861987 38.58342101 15.79125717 10087 463 0 1.00000000 1.00000000 1.00000000
H 16.74667493 38.92342062 17.21773208 10088 463 0 1.00000000 1.00000000 1.00000000
H 17.42121090 37.95825138 16.04171712 10089 463 0 1.00000000 1.00000000 1.00000000
H 17.53296283 39.78205677 14.52749229 10090 463 0 1.00000000 1.00000000 1.00000000
H 18.27844211 40.37955036 15.79246267 10091 463 0 1.00000000 1.00000000 1.00000000
H 16.82358232 42.16801830 15.42312905 10092 463 0 1.00000000 1.00000000 1.00000000
H 15.99643698 41.38338687 16.73093369 10093 463 0 1.00000000 1.00000000 1.00000000
H 14.87718519 40.07439118 14.55478360 10094 463 0 1.00000000 1.00000000 1.00000000
H 15.57106099 41.64207632 13.81927793 10095 463 0 1.00000000 1.00000000 1.00000000
H 13.47647045 42.33591651 14.15209641 10096 463 0 1.00000000 1.00000000 1.00000000
H 14.28955820 42.80029992 15.72488706 10097 463 0 1.00000000 1.00000000 1.00000000
H 13.41843481 40.77999652 16.86416014 10098 463 0 1.00000000 1.00000000 1.00000000
H 12.75625366 40.19492744 15.33767843 10099 463 0 1.00000000 1.00000000 1.00000000
H 10.81538008 40.98219782 16.24988705 10100 463 0 1.00000000 1.00000000 1.00000000
H 11.20310691 42.42010917 15.37798912 10101 463 0 1.00000000 1.00000000 1.00000000
H 11.42069554 42.34243581 17.13109065 10102 463 0 1.00000000 1.00000000 1.00000000
C 6.29670590 40.49398400 36.19643462 10103 464 0 0.56500000 0.56500000 0.56500000
C 5.10979304 40.22284224 35.20357623 10104 464 0 0.56500000 0.56500000 0.56500000
C 5.16225727 38.84333974 34.70627263 10105 464 0 0.56500000 0.56500000 0.56500000
C 4.00339811 38.39766099 33.87955348 10106 464 0 0.56500000 0.56500000 0.56500000
C 3.74031015 39.25688034 32.63983461 10107 464 0 0.56500000 0.56500000 0.56500000
C 2.30277798 39.16870648 32.06715575 10108 464 0 0.56500000 0.56500000 0.56500000
C 1.44643352 40.01878246 33.02099928 10109 464 0 0.56500000 0.56500000 0.56500000
H 7.24695423 40.14353072 35.63801662 10110 464 0 1.00000000 1.00000000 1.00000000
H 6.20672268 39.90857804 37.16967670 10111 464 0 1.00000000 1.00000000 1.00000000
H 6.36561181 41.52299778 36.44937726 10112 464 0 1.00000000 1.00000000 1.00000000
H 5.32586665 40.99823290 34.42918820 10113 464 0 1.00000000 1.00000000 1.00000000
H 4.12528955 40.40570411 35.59255790 10114 464 0 1.00000000 1.00000000 1.00000000
H 5.17507074 38.19755261 35.63342840 10115 464 0 1.00000000 1.00000000 1.00000000
H 6.11110837 38.67501529 34.10115449 10116 464 0 1.00000000 1.00000000 1.00000000
H 3.14772197 38.45512965 34.52481843 10117 464 0 1.00000000 1.00000000 1.00000000
H 4.16549445 37.40070895 33.58901073 10118 464 0 1.00000000 1.00000000 1.00000000
H 4.39592894 39.14604470 31.75406274 10119 464 0 1.00000000 1.00000000 1.00000000
H 4.06699359 40.31057724 32.78172168 10120 464 0 1.00000000 1.00000000 1.00000000
H 1.95013782 38.11361825 32.10256873 10121 464 0 1.00000000 1.00000000 1.00000000
H 2.18072525 39.56097011 31.02756018 10122 464 0 1.00000000 1.00000000 1.00000000
H 1.45025988 39.49621068 33.98932248 10123 464 0 1.00000000 1.00000000 1.00000000
H 0.39829189 39.97339178 32.65668650 10124 464 0 1.00000000 1.00000000 1.00000000
H 1.85126949 40.98222449 33.04520328 10125 464 0 1.00000000 1.00000000 1.00000000
C 41.24087940 19.42509999 22.26802568 10126 465 0 0.56500000 0.56500000 0.56500000
C 42.48907805 19.27227052 23.14745718 10127 465 0 0.56500000 0.56500000 0.56500000
C 43.83365038 19.64929805 22.54731344 10128 465 0 0.56500000 0.56500000 0.56500000
C 45.07302194 18.95407664 23.00764984 10129 465 0 0.56500000 0.56500000 0.56500000
C 45.29858518 19.05045082 24.49726903 10130 465 0 0.56500000 0.56500000 0.56500000
C 45.79562723 20.44334500 24.90560908 10131 465 0 0.56500000 0.56500000 0.56500000
C 46.95475612 21.10782726 23.96635490 10132 465 0 0.56500000 0.56500000 0.56500000
H 40.36531726 18.99737625 22.68519863 10133 465 0 1.00000000 1.00000000 1.00000000
H 41.45892459 18.88873550 21.28398537 10134 465 0 1.00000000 1.00000000 1.00000000
H 41.09121550 20.44793533 21.86908260 10135 465 0 1.00000000 1.00000000 1.00000000
H 42.60357354 18.18195090 23.29405546 10136 465 0 1.00000000 1.00000000 1.00000000
H 42.36473900 19.83975950 24.05644502 10137 465 0 1.00000000 1.00000000 1.00000000
H 43.98613254 20.74722507 22.63215833 10138 465 0 1.00000000 1.00000000 1.00000000
H 43.74983878 19.50682565 21.43624934 10139 465 0 1.00000000 1.00000000 1.00000000
H 45.95377771 19.27609517 22.46650308 10140 465 0 1.00000000 1.00000000 1.00000000
H 44.98860802 17.93705538 22.64981584 10141 465 0 1.00000000 1.00000000 1.00000000
H 45.89483867 18.13366343 24.82581448 10142 465 0 1.00000000 1.00000000 1.00000000
H 44.36249352 18.81564852 25.03469484 10143 465 0 1.00000000 1.00000000 1.00000000
H 46.08816141 20.50029230 25.96423691 10144 465 0 1.00000000 1.00000000 1.00000000
H 44.88985192 21.11367913 24.68934652 10145 465 0 1.00000000 1.00000000 1.00000000
H 47.91856618 20.65005363 23.92281623 10146 465 0 1.00000000 1.00000000 1.00000000
H 47.16580340 22.11538338 24.35701880 10147 465 0 1.00000000 1.00000000 1.00000000
H 46.52099980 21.31996634 22.97651263 10148 465 0 1.00000000 1.00000000 1.00000000
C 36.31904552 43.24886847 21.83538250 10149 466 0 0.56500000 0.56500000 0.56500000
C 35.60452113 41.96089053 22.38638423 10150 466 0 0.56500000 0.56500000 0.56500000
C 35.56674275 41.94552177 23.97829422 10151 466 0 0.56500000 0.56500000 0.56500000
C 34.32753533 42.47380510 24.67668755 10152 466 0 0.56500000 0.56500000 0.56500000
C 34.53602353 42.30354825 26.20981273 10153 466 0 0.56500000 0.56500000 0.56500000
C 33.32876984 42.76531498 27.00978250 10154 466 0 0.56500000 0.56500000 0.56500000
C 32.18350079 41.68198259 26.88780141 10155 466 0 0.56500000 0.56500000 0.56500000
H 37.30463329 43.35947442 22.16804905 10156 466 0 1.00000000 1.00000000 1.00000000
H 35.86183000 44.19749148 22.13848167 10157 466 0 1.00000000 1.00000000 1.00000000
H 36.43867550 43.27323627 20.73371769 10158 466 0 1.00000000 1.00000000 1.00000000
H 36.09520366 41.03655148 21.91385429 10159 466 0 1.00000000 1.00000000 1.00000000
H 34.53341646 41.91030677 22.09459303 10160 466 0 1.00000000 1.00000000 1.00000000
H 36.38786913 42.63313881 24.30959405 10161 466 0 1.00000000 1.00000000 1.00000000
H 35.70761034 40.92327420 24.36687404 10162 466 0 1.00000000 1.00000000 1.00000000
H 33.39797044 41.89213274 24.50652464 10163 466 0 1.00000000 1.00000000 1.00000000
H 34.26904771 43.55767570 24.40432756 10164 466 0 1.00000000 1.00000000 1.00000000
H 35.38650736 42.89356087 26.58900463 10165 466 0 1.00000000 1.00000000 1.00000000
H 34.74203786 41.22447722 26.44062147 10166 466 0 1.00000000 1.00000000 1.00000000
H 32.85087112 43.76965606 26.75962630 10167 466 0 1.00000000 1.00000000 1.00000000
H 33.63491282 42.75766383 28.09398020 10168 466 0 1.00000000 1.00000000 1.00000000
H 32.47160692 40.70903227 27.24070624 10169 466 0 1.00000000 1.00000000 1.00000000
H 31.78479574 41.74942182 25.84681620 10170 466 0 1.00000000 1.00000000 1.00000000
H 31.35046777 41.88361022 27.61534277 10171 466 0 1.00000000 1.00000000 1.00000000
C 19.71827791 9.74127729 27.31523621 10172 467 0 0.56500000 0.56500000 0.56500000
C 19.32985796 10.11932887 25.90308693 10173 467 0 0.56500000 0.56500000 0.56500000
C 18.36266009 9.13288799 25.20789449 10174 467 0 0.56500000 0.56500000 0.56500000
C 18.98902081 7.71216089 24.82352333 10175 467 0 0.56500000 0.56500000 0.56500000
C 17.97030675 6.87565699 24.02523334 10176 467 0 0.56500000 0.56500000 0.56500000
C 18.44677854 5.47418983 23.76097411 10177 467 0 0.56500000 0.56500000 0.56500000
C 17.38800772 4.44325065 23.52948556 10178 467 0 0.56500000 0.56500000 0.56500000
H 18.88887616 9.42165521 27.87968192 10179 467 0 1.00000000 1.00000000 1.00000000
H 20.22314621 10.58196142 27.83380288 10180 467 0 1.00000000 1.00000000 1.00000000
H 20.42310887 8.91902958 27.38583947 10181 467 0 1.00000000 1.00000000 1.00000000
H 20.19875033 10.24969749 25.24871065 10182 467 0 1.00000000 1.00000000 1.00000000
H 19.00006473 11.12170655 25.94373091 10183 467 0 1.00000000 1.00000000 1.00000000
H 18.09986712 9.60592523 24.26912641 10184 467 0 1.00000000 1.00000000 1.00000000
H 17.50833062 8.95875577 25.88151815 10185 467 0 1.00000000 1.00000000 1.00000000
H 19.35030850 7.22373837 25.67487840 10186 467 0 1.00000000 1.00000000 1.00000000
H 19.86347863 7.84678290 24.24884424 10187 467 0 1.00000000 1.00000000 1.00000000
H 17.87282797 7.37528625 22.99364541 10188 467 0 1.00000000 1.00000000 1.00000000
H 16.95229564 6.96912367 24.42314580 10189 467 0 1.00000000 1.00000000 1.00000000
H 19.08927545 5.05676848 24.55654507 10190 467 0 1.00000000 1.00000000 1.00000000
H 19.10176474 5.46258692 22.88891438 10191 467 0 1.00000000 1.00000000 1.00000000
H 17.67373648 3.43738554 23.24583684 10192 467 0 1.00000000 1.00000000 1.00000000
H 16.71436412 4.80581395 22.73141975 10193 467 0 1.00000000 1.00000000 1.00000000
H 16.73011441 4.32080478 24.52360031 10194 467 0 1.00000000 1.00000000 1.00000000
C 23.13186551 14.34083335 39.13671873 10195 468 0 0.56500000 0.56500000 0.56500000
C 21.72596484 14.28414365 39.55407037 10196 468 0 0.56500000 0.56500000 0.56500000
C 21.45183752 13.22583570 40.62369920 10197 468 0 0.56500000 0.56500000 0.56500000
C 19.99842707 12.90098408 40.87850586 10198 468 0 0.56500000 0.56500000 0.56500000
C 19.20224522 14.07858338 41.36488822 10199 468 0 0.56500000 0.56500000 0.56500000
C 17.73197047 13.70305765 41.77838086 10200 468 0 0.56500000 0.56500000 0.56500000
C 16.91803917 13.29702742 40.57533048 10201 468 0 0.56500000 0.56500000 0.56500000
H 23.45219065 13.45353176 38.65069491 10202 468 0 1.00000000 1.00000000 1.00000000
H 23.90253932 14.51764069 39.86359951 10203 468 0 1.00000000 1.00000000 1.00000000
H 23.24026051 15.18183307 38.43231437 10204 468 0 1.00000000 1.00000000 1.00000000
H 21.07579051 13.87158027 38.73732591 10205 468 0 1.00000000 1.00000000 1.00000000
H 21.26772707 15.18370021 39.85381094 10206 468 0 1.00000000 1.00000000 1.00000000
H 21.93579093 13.32477762 41.56532866 10207 468 0 1.00000000 1.00000000 1.00000000
H 21.88652633 12.21688233 40.25207097 10208 468 0 1.00000000 1.00000000 1.00000000
H 20.01947482 12.02608811 41.60876771 10209 468 0 1.00000000 1.00000000 1.00000000
H 19.56261796 12.52169021 39.93572458 10210 468 0 1.00000000 1.00000000 1.00000000
H 19.06520989 14.87558252 40.58442871 10211 468 0 1.00000000 1.00000000 1.00000000
H 19.71738003 14.52822518 42.26170479 10212 468 0 1.00000000 1.00000000 1.00000000
H 17.24879458 14.49489052 42.28160389 10213 468 0 1.00000000 1.00000000 1.00000000
H 17.68266740 12.91793241 42.52516941 10214 468 0 1.00000000 1.00000000 1.00000000
H 16.90209448 14.14669133 39.83344391 10215 468 0 1.00000000 1.00000000 1.00000000
H 15.88257760 13.08405789 40.88109096 10216 468 0 1.00000000 1.00000000 1.00000000
H 17.30187772 12.42174640 40.11800043 10217 468 0 1.00000000 1.00000000 1.00000000
C 11.68090801 45.56581127 26.54517566 10218 469 0 0.56500000 0.56500000 0.56500000
C 11.68798945 44.15842968 27.00349503 10219 469 0 0.56500000 0.56500000 0.56500000
C 11.55928944 43.17636444 25.82691548 10220 469 0 0.56500000 0.56500000 0.56500000
C 12.80105614 42.99701466 25.03711797 10221 469 0 0.56500000 0.56500000 0.56500000
C 12.77923176 41.80050780 24.08098057 10222 469 0 0.56500000 0.56500000 0.56500000
C 12.33943333 40.46612600 24.75704733 10223 469 0 0.56500000 0.56500000 0.56500000
C 13.34028662 39.94083109 25.67643156 10224 469 0 0.56500000 0.56500000 0.56500000
H 12.34780202 45.72774594 25.74252123 10225 469 0 1.00000000 1.00000000 1.00000000
H 12.01061010 46.19620126 27.39578818 10226 469 0 1.00000000 1.00000000 1.00000000
H 10.61558349 45.81067613 26.20552622 10227 469 0 1.00000000 1.00000000 1.00000000
H 10.86653681 43.97301753 27.68299409 10228 469 0 1.00000000 1.00000000 1.00000000
H 12.57967999 43.93728363 27.63219535 10229 469 0 1.00000000 1.00000000 1.00000000
H 10.67984705 43.47439254 25.24166492 10230 469 0 1.00000000 1.00000000 1.00000000
H 11.28818388 42.19834807 26.27379786 10231 469 0 1.00000000 1.00000000 1.00000000
H 13.56500112 42.74730471 25.78774547 10232 469 0 1.00000000 1.00000000 1.00000000
H 13.11290912 43.92397801 24.51117899 10233 469 0 1.00000000 1.00000000 1.00000000
H 13.78488379 41.57097592 23.71665837 10234 469 0 1.00000000 1.00000000 1.00000000
H 12.14441634 41.96094534 23.17392112 10235 469 0 1.00000000 1.00000000 1.00000000
H 12.20417922 39.70116076 24.00692711 10236 469 0 1.00000000 1.00000000 1.00000000
H 11.32253121 40.68268199 25.14338968 10237 469 0 1.00000000 1.00000000 1.00000000
H 14.32236453 40.04012594 25.15101120 10238 469 0 1.00000000 1.00000000 1.00000000
H 13.05324686 38.91722815 25.92335493 10239 469 0 1.00000000 1.00000000 1.00000000
H 13.38736894 40.48360472 26.58145031 10240 469 0 1.00000000 1.00000000 1.00000000
C 12.72438990 17.03842784 42.24908338 10241 470 0 0.56500000 0.56500000 0.56500000
C 14.20145497 16.56341040 42.42373283 10242 470 0 0.56500000 0.56500000 0.56500000
C 15.13942980 17.48559849 41.62832084 10243 470 0 0.56500000 0.56500000 0.56500000
C 14.96986786 17.59348757 40.16280783 10244 470 0 0.56500000 0.56500000 0.56500000
C 15.82386458 18.62920137 39.43108297 10245 470 0 0.56500000 0.56500000 0.56500000
C 15.26268681 19.06786325 38.10291857 10246 470 0 0.56500000 0.56500000 0.56500000
C 16.14195150 20.05704324 37.34045485 10247 470 0 0.56500000 0.56500000 0.56500000
H 12.70964487 18.04247389 42.61330182 10248 470 0 1.00000000 1.00000000 1.00000000
H 11.90487569 16.45377239 42.76674481 10249 470 0 1.00000000 1.00000000 1.00000000
H 12.45363289 17.10753814 41.17842603 10250 470 0 1.00000000 1.00000000 1.00000000
H 14.33480432 15.43545716 42.21893390 10251 470 0 1.00000000 1.00000000 1.00000000
H 14.44815402 16.68313023 43.51803301 10252 470 0 1.00000000 1.00000000 1.00000000
H 16.19837130 17.45195687 41.95621028 10253 470 0 1.00000000 1.00000000 1.00000000
H 14.81669495 18.49105043 41.99269081 10254 470 0 1.00000000 1.00000000 1.00000000
H 13.91337010 17.75351180 39.93950890 10255 470 0 1.00000000 1.00000000 1.00000000
H 15.11168491 16.60962934 39.58939290 10256 470 0 1.00000000 1.00000000 1.00000000
H 16.76823280 18.17064037 39.21119228 10257 470 0 1.00000000 1.00000000 1.00000000
H 16.00625071 19.49864514 40.10544196 10258 470 0 1.00000000 1.00000000 1.00000000
H 14.29566160 19.51235036 38.24005091 10259 470 0 1.00000000 1.00000000 1.00000000
H 15.22018724 18.13479857 37.44059216 10260 470 0 1.00000000 1.00000000 1.00000000
H 15.56820345 20.29998757 36.41303461 10261 470 0 1.00000000 1.00000000 1.00000000
H 17.06177909 19.53875088 37.03064098 10262 470 0 1.00000000 1.00000000 1.00000000
H 16.57076185 20.91977123 37.89560703 10263 470 0 1.00000000 1.00000000 1.00000000
C 37.45425730 14.33252673 10.44335746 10264 471 0 0.56500000 0.56500000 0.56500000
C 38.45468360 15.36839775 9.91596760 10265 471 0 0.56500000 0.56500000 0.56500000
C 37.80701296 16.56899035 9.18443412 10266 471 0 0.56500000 0.56500000 0.56500000
C 37.14744835 16.16084758 7.80381392 10267 471 0 0.56500000 0.56500000 0.56500000
C 38.23414247 16.04282381 6.67056988 10268 471 0 0.56500000 0.56500000 0.56500000
C 38.26008468 17.27423411 5.76454026 10269 471 0 0.56500000 0.56500000 0.56500000
C 39.13826723 17.04610208 4.51154919 10270 471 0 0.56500000 0.56500000 0.56500000
H 36.82412416 13.78079825 9.70756785 10271 471 0 1.00000000 1.00000000 1.00000000
H 36.77003573 14.81038024 11.17991202 10272 471 0 1.00000000 1.00000000 1.00000000
H 38.01184799 13.59447670 11.09886880 10273 471 0 1.00000000 1.00000000 1.00000000
H 39.29549248 14.95799205 9.39412900 10274 471 0 1.00000000 1.00000000 1.00000000
H 38.96807548 15.78039497 10.79424111 10275 471 0 1.00000000 1.00000000 1.00000000
H 38.62949221 17.31481461 8.95919296 10276 471 0 1.00000000 1.00000000 1.00000000
H 37.12169848 16.98590159 9.92804567 10277 471 0 1.00000000 1.00000000 1.00000000
H 36.35679586 16.89955497 7.44245268 10278 471 0 1.00000000 1.00000000 1.00000000
H 36.62539013 15.25167710 7.88944385 10279 471 0 1.00000000 1.00000000 1.00000000
H 37.99542786 15.25292698 6.01602044 10280 471 0 1.00000000 1.00000000 1.00000000
H 39.20199497 15.89618775 7.12500369 10281 471 0 1.00000000 1.00000000 1.00000000
H 38.60133746 18.17793722 6.21793130 10282 471 0 1.00000000 1.00000000 1.00000000
H 37.28899264 17.53380631 5.40977935 10283 471 0 1.00000000 1.00000000 1.00000000
H 39.18283046 17.88696500 3.86958606 10284 471 0 1.00000000 1.00000000 1.00000000
H 38.79468937 16.26706757 3.87611023 10285 471 0 1.00000000 1.00000000 1.00000000
H 40.15212238 16.70778758 4.78431181 10286 471 0 1.00000000 1.00000000 1.00000000
C 23.83414816 30.24681554 24.09850288 10287 472 0 0.56500000 0.56500000 0.56500000
C 22.96849499 30.48466377 22.87714451 10288 472 0 0.56500000 0.56500000 0.56500000
C 22.55144061 29.08046949 22.32331126 10289 472 0 0.56500000 0.56500000 0.56500000
C 21.52262285 29.18662551 21.18733022 10290 472 0 0.56500000 0.56500000 0.56500000
C 20.57132743 28.07934621 20.93141545 10291 472 0 0.56500000 0.56500000 0.56500000
C 19.55964915 28.46506220 19.88727524 10292 472 0 0.56500000 0.56500000 0.56500000
C 18.65041209 29.57811508 20.42102541 10293 472 0 0.56500000 0.56500000 0.56500000
H 24.17604038 31.26557067 24.41065382 10294 472 0 1.00000000 1.00000000 1.00000000
H 24.74610516 29.63275044 23.90494120 10295 472 0 1.00000000 1.00000000 1.00000000
H 23.27606266 29.70404043 24.91958509 10296 472 0 1.00000000 1.00000000 1.00000000
H 23.44368750 31.07123493 22.13080002 10297 472 0 1.00000000 1.00000000 1.00000000
H 22.01973382 30.98218996 23.08003593 10298 472 0 1.00000000 1.00000000 1.00000000
H 22.10769670 28.50293475 23.16667614 10299 472 0 1.00000000 1.00000000 1.00000000
H 23.32155136 28.48411146 22.01761942 10300 472 0 1.00000000 1.00000000 1.00000000
H 22.07062553 29.50206451 20.30032094 10301 472 0 1.00000000 1.00000000 1.00000000
H 20.91223869 30.03479879 21.48344783 10302 472 0 1.00000000 1.00000000 1.00000000
H 20.05445844 27.62669278 21.80387974 10303 472 0 1.00000000 1.00000000 1.00000000
H 21.00993827 27.12910912 20.55397188 10304 472 0 1.00000000 1.00000000 1.00000000
H 18.96605580 27.54073572 19.62808811 10305 472 0 1.00000000 1.00000000 1.00000000
H 20.20970308 28.85550570 19.00338200 10306 472 0 1.00000000 1.00000000 1.00000000
H 17.83304277 29.94264073 19.81552908 10307 472 0 1.00000000 1.00000000 1.00000000
H 19.13118686 30.43876344 20.79806312 10308 472 0 1.00000000 1.00000000 1.00000000
H 18.00865086 29.25960578 21.29677331 10309 472 0 1.00000000 1.00000000 1.00000000
C 5.02573417 7.54190885 27.95872480 10310 473 0 0.56500000 0.56500000 0.56500000
C 6.25791355 7.92921606 27.23369587 10311 473 0 0.56500000 0.56500000 0.56500000
C 7.13223618 9.05425696 27.95391970 10312 473 0 0.56500000 0.56500000 0.56500000
C 8.44590707 9.38092722 27.17832252 10313 473 0 0.56500000 0.56500000 0.56500000
C 9.04869544 10.72752624 27.44956769 10314 473 0 0.56500000 0.56500000 0.56500000
C 8.94501982 11.12937877 28.88176553 10315 473 0 0.56500000 0.56500000 0.56500000
C 10.06638883 12.21557375 29.22970160 10316 473 0 0.56500000 0.56500000 0.56500000
H 5.26386329 6.85094437 28.76927997 10317 473 0 1.00000000 1.00000000 1.00000000
H 4.25607462 7.15592880 27.25689624 10318 473 0 1.00000000 1.00000000 1.00000000
H 4.69282918 8.53660329 28.37882981 10319 473 0 1.00000000 1.00000000 1.00000000
H 6.08768643 8.30969313 26.22198051 10320 473 0 1.00000000 1.00000000 1.00000000
H 6.87298465 6.96054556 26.90914109 10321 473 0 1.00000000 1.00000000 1.00000000
H 7.47089841 8.66070158 28.92319263 10322 473 0 1.00000000 1.00000000 1.00000000
H 6.41267969 9.85611351 28.08562791 10323 473 0 1.00000000 1.00000000 1.00000000
H 8.29710282 9.21062142 26.13044738 10324 473 0 1.00000000 1.00000000 1.00000000
H 9.16503153 8.53196356 27.41658697 10325 473 0 1.00000000 1.00000000 1.00000000
H 8.54662126 11.43837079 26.72137011 10326 473 0 1.00000000 1.00000000 1.00000000
H 10.11625686 10.76668280 27.19744854 10327 473 0 1.00000000 1.00000000 1.00000000
H 9.19203196 10.26180104 29.53119249 10328 473 0 1.00000000 1.00000000 1.00000000
H 7.93297830 11.51295470 29.10190716 10329 473 0 1.00000000 1.00000000 1.00000000
H 9.95288228 13.15332293 28.75697647 10330 473 0 1.00000000 1.00000000 1.00000000
H 11.03473354 11.70130345 29.08740556 10331 473 0 1.00000000 1.00000000 1.00000000
H 10.00889936 12.40447948 30.32442755 10332 473 0 1.00000000 1.00000000 1.00000000
C 13.73898297 46.35872299 41.49833546 10333 474 0 0.56500000 0.56500000 0.56500000
C 13.61213336 44.96654571 40.85553225 10334 474 0 0.56500000 0.56500000 0.56500000
C 12.88608075 45.04932786 39.42951222 10335 474 0 0.56500000 0.56500000 0.56500000
C 12.19550794 43.79791682 38.94562599 10336 474 0 0.56500000 0.56500000 0.56500000
C 11.81988001 43.83168223 37.50490454 10337 474 0 0.56500000 0.56500000 0.56500000
C 11.11026962 42.55447769 37.05267480 10338 474 0 0.56500000 0.56500000 0.56500000
C 10.80358997 42.43771692 35.54150800 10339 474 0 0.56500000 0.56500000 0.56500000
H 12.76580070 46.83575143 41.47361361 10340 474 0 1.00000000 1.00000000 1.00000000
H 14.51179363 46.91634631 40.94994930 10341 474 0 1.00000000 1.00000000 1.00000000
H 14.12283533 46.31490103 42.51831220 10342 474 0 1.00000000 1.00000000 1.00000000
H 13.03933556 44.22696187 41.33441712 10343 474 0 1.00000000 1.00000000 1.00000000
H 14.67464817 44.60426870 40.69650321 10344 474 0 1.00000000 1.00000000 1.00000000
H 13.69338565 45.30376394 38.70969531 10345 474 0 1.00000000 1.00000000 1.00000000
H 12.13448636 45.85571382 39.41065057 10346 474 0 1.00000000 1.00000000 1.00000000
H 11.32539557 43.61037461 39.53478102 10347 474 0 1.00000000 1.00000000 1.00000000
H 12.82013307 42.97187602 39.13222138 10348 474 0 1.00000000 1.00000000 1.00000000
H 12.69216408 44.15351293 36.91714168 10349 474 0 1.00000000 1.00000000 1.00000000
H 11.11857700 44.64799481 37.36924823 10350 474 0 1.00000000 1.00000000 1.00000000
H 10.26360600 42.48275187 37.66539944 10351 474 0 1.00000000 1.00000000 1.00000000
H 11.77510186 41.69165094 37.29687671 10352 474 0 1.00000000 1.00000000 1.00000000
H 11.85477508 42.62171309 35.06118301 10353 474 0 1.00000000 1.00000000 1.00000000
H 9.98464473 43.15797603 35.25774340 10354 474 0 1.00000000 1.00000000 1.00000000
H 10.44790863 41.48142558 35.27499273 10355 474 0 1.00000000 1.00000000 1.00000000
C 22.70906960 46.53531902 27.19169189 10356 475 0 0.56500000 0.56500000 0.56500000
C 22.11218410 45.69025781 26.10319750 10357 475 0 0.56500000 0.56500000 0.56500000
C 21.69536949 44.21506864 26.48753584 10358 475 0 0.56500000 0.56500000 0.56500000
C 20.58278115 43.58896789 25.57663448 10359 475 0 0.56500000 0.56500000 0.56500000
C 19.16976715 44.26456289 25.73840917 10360 475 0 0.56500000 0.56500000 0.56500000
C 18.14205157 43.53907026 24.89763350 10361 475 0 0.56500000 0.56500000 0.56500000
C 16.78916504 44.25259516 25.06809848 10362 475 0 0.56500000 0.56500000 0.56500000
H 23.53436247 45.93816705 27.64959569 10363 475 0 1.00000000 1.00000000 1.00000000
H 22.07407298 46.74804624 28.08922833 10364 475 0 1.00000000 1.00000000 1.00000000
H 23.17494206 47.42239028 26.82089463 10365 475 0 1.00000000 1.00000000 1.00000000
H 22.89590820 45.64495745 25.29623887 10366 475 0 1.00000000 1.00000000 1.00000000
H 21.33604994 46.11547141 25.52984345 10367 475 0 1.00000000 1.00000000 1.00000000
H 21.39347028 44.04632714 27.54540405 10368 475 0 1.00000000 1.00000000 1.00000000
H 22.61168564 43.58562617 26.28316392 10369 475 0 1.00000000 1.00000000 1.00000000
H 20.44570515 42.50156780 25.81475451 10370 475 0 1.00000000 1.00000000 1.00000000
H 20.86999263 43.67289703 24.55748173 10371 475 0 1.00000000 1.00000000 1.00000000
H 19.15646729 45.26345755 25.31686968 10372 475 0 1.00000000 1.00000000 1.00000000
H 18.81766416 44.34376941 26.78157727 10373 475 0 1.00000000 1.00000000 1.00000000
H 18.13185853 42.41556319 24.97315059 10374 475 0 1.00000000 1.00000000 1.00000000
H 18.46338822 43.72168888 23.91571894 10375 475 0 1.00000000 1.00000000 1.00000000
H 16.80929886 45.17333000 24.44329855 10376 475 0 1.00000000 1.00000000 1.00000000
H 16.67425728 44.55321038 26.08880277 10377 475 0 1.00000000 1.00000000 1.00000000
H 16.00346254 43.61866989 24.70028485 10378 475 0 1.00000000 1.00000000 1.00000000
C 40.84101282 22.70941601 26.11747865 10379 476 0 0.56500000 0.56500000 0.56500000
C 41.26965818 24.09242488 26.58972874 10380 476 0 0.56500000 0.56500000 0.56500000
C 41.67703864 24.20382309 28.01798240 10381 476 0 0.56500000 0.56500000 0.56500000
C 42.03954922 25.65419459 28.41859392 10382 476 0 0.56500000 0.56500000 0.56500000
C 42.83753261 25.81314241 29.75442169 10383 476 0 0.56500000 0.56500000 0.56500000
C 42.00704839 26.15486468 30.95362781 10384 476 0 0.56500000 0.56500000 0.56500000
C 41.41854514 27.57012951 30.85245966 10385 476 0 0.56500000 0.56500000 0.56500000
H 40.54438036 22.67433590 25.05279916 10386 476 0 1.00000000 1.00000000 1.00000000
H 40.07014535 22.33158901 26.78598001 10387 476 0 1.00000000 1.00000000 1.00000000
H 41.63708955 22.01607145 26.28179025 10388 476 0 1.00000000 1.00000000 1.00000000
H 40.32813884 24.64624351 26.45424777 10389 476 0 1.00000000 1.00000000 1.00000000
H 42.08491144 24.53653961 26.02737020 10390 476 0 1.00000000 1.00000000 1.00000000
H 42.52620263 23.52369066 28.16734672 10391 476 0 1.00000000 1.00000000 1.00000000
H 40.83437490 23.93586347 28.66056339 10392 476 0 1.00000000 1.00000000 1.00000000
H 41.16775493 26.36625692 28.39290295 10393 476 0 1.00000000 1.00000000 1.00000000
H 42.71666164 26.03733875 27.58952435 10394 476 0 1.00000000 1.00000000 1.00000000
H 43.64730655 26.60114792 29.63705357 10395 476 0 1.00000000 1.00000000 1.00000000
H 43.41236019 24.88414710 29.85663093 10396 476 0 1.00000000 1.00000000 1.00000000
H 42.57466600 26.02872435 31.89165053 10397 476 0 1.00000000 1.00000000 1.00000000
H 41.15884021 25.47793674 31.15543840 10398 476 0 1.00000000 1.00000000 1.00000000
H 41.03715211 27.91364672 31.87616200 10399 476 0 1.00000000 1.00000000 1.00000000
H 40.49370668 27.66507852 30.26719389 10400 476 0 1.00000000 1.00000000 1.00000000
H 42.02975133 28.35605654 30.49646224 10401 476 0 1.00000000 1.00000000 1.00000000
C 17.46447144 37.30360730 -1.15784406 10402 477 0 0.56500000 0.56500000 0.56500000
C 18.55788801 37.62078262 -0.14987985 10403 477 0 0.56500000 0.56500000 0.56500000
C 18.75786630 39.17861949 -0.00697119 10404 477 0 0.56500000 0.56500000 0.56500000
C 19.15117927 39.64198429 1.36959239 10405 477 0 0.56500000 0.56500000 0.56500000
C 20.46667581 38.91154755 1.87417062 10406 477 0 0.56500000 0.56500000 0.56500000
C 20.69085745 38.97594703 3.34811799 10407 477 0 0.56500000 0.56500000 0.56500000
C 21.85687522 38.13244132 3.80095009 10408 477 0 0.56500000 0.56500000 0.56500000
H 17.21400006 36.21354552 -1.19437519 10409 477 0 1.00000000 1.00000000 1.00000000
H 17.66649441 37.58043071 -2.19490149 10410 477 0 1.00000000 1.00000000 1.00000000
H 16.55370140 37.79005397 -0.84134096 10411 477 0 1.00000000 1.00000000 1.00000000
H 19.54135540 37.28017811 -0.56242810 10412 477 0 1.00000000 1.00000000 1.00000000
H 18.37521405 37.02607374 0.74503904 10413 477 0 1.00000000 1.00000000 1.00000000
H 17.89286407 39.71932542 -0.30230747 10414 477 0 1.00000000 1.00000000 1.00000000
H 19.60590578 39.28491135 -0.73053096 10415 477 0 1.00000000 1.00000000 1.00000000
H 18.37474868 39.26501967 2.09785703 10416 477 0 1.00000000 1.00000000 1.00000000
H 19.19485900 40.69488169 1.53536239 10417 477 0 1.00000000 1.00000000 1.00000000
H 21.34730769 39.35915137 1.37190270 10418 477 0 1.00000000 1.00000000 1.00000000
H 20.44645222 37.86760947 1.58849911 10419 477 0 1.00000000 1.00000000 1.00000000
H 19.87891829 38.60248815 3.94795947 10420 477 0 1.00000000 1.00000000 1.00000000
H 20.90595386 40.05561970 3.65816523 10421 477 0 1.00000000 1.00000000 1.00000000
H 21.81900604 37.11842456 3.32913028 10422 477 0 1.00000000 1.00000000 1.00000000
H 21.91311455 37.81371878 4.89870523 10423 477 0 1.00000000 1.00000000 1.00000000
H 22.84178966 38.50332948 3.43377119 10424 477 0 1.00000000 1.00000000 1.00000000
C 21.83418126 33.72086594 26.04428878 10425 478 0 0.56500000 0.56500000 0.56500000
C 21.46422057 33.24578292 27.41200833 10426 478 0 0.56500000 0.56500000 0.56500000
C 20.08281850 32.75301696 27.64111986 10427 478 0 0.56500000 0.56500000 0.56500000
C 19.55943302 31.85372592 26.57468067 10428 478 0 0.56500000 0.56500000 0.56500000
C 18.43610598 30.92541167 26.93608504 10429 478 0 0.56500000 0.56500000 0.56500000
C 17.95554522 29.93149918 25.91659431 10430 478 0 0.56500000 0.56500000 0.56500000
C 19.01984847 28.84195260 25.80965129 10431 478 0 0.56500000 0.56500000 0.56500000
H 22.07183332 32.86972183 25.38252383 10432 478 0 1.00000000 1.00000000 1.00000000
H 22.73462040 34.35175235 26.14364764 10433 478 0 1.00000000 1.00000000 1.00000000
H 21.08063506 34.34081947 25.58797310 10434 478 0 1.00000000 1.00000000 1.00000000
H 21.60100301 33.98284423 28.14318182 10435 478 0 1.00000000 1.00000000 1.00000000
H 22.16121663 32.40450530 27.70955750 10436 478 0 1.00000000 1.00000000 1.00000000
H 19.45733075 33.62880047 27.66477230 10437 478 0 1.00000000 1.00000000 1.00000000
H 20.05492174 32.32448906 28.63171752 10438 478 0 1.00000000 1.00000000 1.00000000
H 20.37671351 31.10515688 26.33059774 10439 478 0 1.00000000 1.00000000 1.00000000
H 19.29415167 32.46751118 25.70707571 10440 478 0 1.00000000 1.00000000 1.00000000
H 17.61768587 31.64116024 27.26395465 10441 478 0 1.00000000 1.00000000 1.00000000
H 18.76025350 30.42168126 27.86207005 10442 478 0 1.00000000 1.00000000 1.00000000
H 17.81690746 30.32637451 24.89427657 10443 478 0 1.00000000 1.00000000 1.00000000
H 17.04463103 29.46090759 26.17253327 10444 478 0 1.00000000 1.00000000 1.00000000
H 18.67329577 28.14678037 24.99971319 10445 478 0 1.00000000 1.00000000 1.00000000
H 19.08759587 28.25701842 26.75594193 10446 478 0 1.00000000 1.00000000 1.00000000
H 20.00270741 29.20433015 25.50430055 10447 478 0 1.00000000 1.00000000 1.00000000
