POSCAR
1.00
 15.000000000000      0.000000000000      0.000000000000
  0.000000000000     15.000000000000      0.000000000000
  0.000000000000      0.000000000000     15.000000000000
C    H    
7    16    
Direct
 -0.710355723999      0.500228572218      0.425251063759
 -0.621997722008      0.545897591009      0.446596064462
 -0.546291539309      0.477761470671      0.454975229586
 -0.457636009265      0.523897552611      0.476421223738
 -0.381879591297      0.455788638458      0.484812909994
 -0.293266740780      0.501964379902      0.506254225750
 -0.217695133067      0.434387078117      0.514658927664
 -0.728460219232      0.452760881799      0.479138705247
 -0.705565824391      0.463672620862      0.361020613194
 -0.763818896400      0.551115782991      0.419589465172
 -0.629116817556      0.583313505727      0.510190950042
 -0.606320260807      0.594179026355      0.392577029583
 -0.539733523212      0.440437870485      0.391220489018
 -0.562552246231      0.429561581734      0.508948193194
 -0.464216041618      0.561227436444      0.540169007219
 -0.441398445141      0.572102938644      0.422447335280
 -0.375275684110      0.418458669884      0.421066681945
 -0.398094640392      0.407582952774      0.538794464007
 -0.299284943905      0.539233131797      0.570048876827
 -0.276488486227      0.550098622744      0.452434857998
 -0.209134628506      0.397327279511      0.451112708502
 -0.232028817538      0.386415357664      0.569230790792
 -0.154501077530      0.469683637579      0.530168262457