POSCAR
1.00
 30.000000000000      0.000000000000      0.000000000000
  0.000000000000     30.000000000000      0.000000000000
  0.000000000000      0.000000000000     30.000000000000
P    O    H    C    
1    3    39    18    
Direct
 -0.505129186263      0.380775374831     -0.163936110136
 -0.559923475086      0.362335222234     -0.167427040492
 -0.483249981836      0.349281275393     -0.129182721071
 -0.505488941239      0.432581093971     -0.138038669899
 -0.571826193102      0.364915873746     -0.136742402047
 -0.522798068979      0.428183996846     -0.110272849081
 -0.473549868408      0.343613320041     -0.229639658199
 -0.438478370522      0.388872189775     -0.210705089656
 -0.494766114825      0.444090364290     -0.238577920758
 -0.529784663252      0.398899681207     -0.257484020249
 -0.468992321702      0.373321695774     -0.308930758027
 -0.433979909128      0.418504677981     -0.290027954530
 -0.490494703752      0.473746218092     -0.317398110056
 -0.525504874438      0.428565989854     -0.336299806715
 -0.464706099365      0.402957970613     -0.387702916450
 -0.429695800325      0.448138380839     -0.368801140956
 -0.486212157326      0.503380306282     -0.396163811590
 -0.521222351162      0.458200003654     -0.415065567397
 -0.460424121564      0.432592754780     -0.466469086149
 -0.425413866657      0.477773049661     -0.447567292849
 -0.481930389335      0.533015057633     -0.474929375269
 -0.516940646227      0.487834782219     -0.493831159547
 -0.456142556468      0.462227672060     -0.545234906659
 -0.421132229268      0.507407885138     -0.526333076848
 -0.477648696238      0.562650022723     -0.553694990586
 -0.512659082115      0.517469848393     -0.572596755165
 -0.451861146054      0.491862675707     -0.624000688915
 -0.416850679332      0.537042765117     -0.605098882125
 -0.473367034062      0.592285103991     -0.632460683230
 -0.508377595764      0.547105080426     -0.651362390172
 -0.447579880325      0.521497796249     -0.702766618599
 -0.412569210425      0.566677692296     -0.683864871417
 -0.469085475389      0.621920374950     -0.711226634464
 -0.504096224945      0.576740618121     -0.730128246654
 -0.443298567878      0.551133732067     -0.781535318607
 -0.408287420419      0.596313720168     -0.762633506934
 -0.464799134835      0.651559717761     -0.790004602816
 -0.499812470633      0.606377126292     -0.808907424869
 -0.438971547222      0.580868649719     -0.860537448971
 -0.403992003986      0.626007403048     -0.841652881335
 -0.495123255176      0.635929621292     -0.888548304471
 -0.440993899243      0.644583017095     -0.913299984037
 -0.459993771028      0.681261781882     -0.869582860880
 -0.473421143375      0.378505389148     -0.217241361576
 -0.494704101155      0.409415798513     -0.251704525056
 -0.469068916412      0.408033738987     -0.295883404167
 -0.490415279709      0.439037636392     -0.330452947472
 -0.464785040985      0.437666641101     -0.374648820104
 -0.486133032688      0.468671726060     -0.409218202102
 -0.460503172626      0.467301308868     -0.453414649788
 -0.481851325663      0.498306514916     -0.487983853554
 -0.456221561904      0.496936199951     -0.532180391647
 -0.477569725391      0.527941501550     -0.566749525563
 -0.451940052906      0.526571197188     -0.610946158012
 -0.473288183277      0.557576617527     -0.645515303953
 -0.447658638368      0.556206349827     -0.689712187494
 -0.469006669561      0.587212021204     -0.724281658733
 -0.443377258151      0.585842122469     -0.768479667231
 -0.464723252810      0.616846416026     -0.803049129305
 -0.439083507327      0.615459905628     -0.847227043030
 -0.460230397271      0.646279707896     -0.881723947997