surface_1-butanol
1.0
       19.6214008331         0.0000000000         0.0000000000
        0.0000000000        20.9575996399         0.0000000000
        0.0000000000         0.0000000000        50.0000000000
    H    O   Zn
   48  168  144
Direct
     0.369100000         0.096640000         0.207660000
     0.370490000         0.596460000         0.207110000
     0.817590000         0.091280000         0.219030000
     0.820170000         0.591530000         0.218700000
     0.369090000         0.346640000         0.207700000
     0.369150000         0.846670000         0.207660000
     0.817980000         0.340670000         0.219050000
     0.818190000         0.841500000         0.219000000
     0.150730000         0.091160000         0.219090000
     0.150710000         0.590960000         0.219150000
     0.702500000         0.096570000         0.207670000
     0.706000000         0.598320000         0.206690000
     0.150640000         0.340990000         0.219140000
     0.150800000         0.841310000         0.219120000
     0.702880000         0.346260000         0.207520000
     0.702730000         0.846620000         0.207710000
     0.483970000         0.091000000         0.219110000
     0.476990000         0.586980000         0.220230000
     0.035710000         0.096620000         0.207680000
     0.035940000         0.596610000         0.207710000
     0.483730000         0.340280000         0.219300000
     0.483630000         0.841010000         0.219220000
     0.035720000         0.346610000         0.207700000
     0.035810000         0.846710000         0.207690000
     0.310680000         0.140300000         0.194870000
     0.310150000         0.639640000         0.195330000
     0.801220000         0.169340000         0.187150000
     0.802060000         0.669600000         0.186970000
     0.310830000         0.390360000         0.194820000
     0.310690000         0.890270000         0.194880000
     0.801550000         0.419460000         0.187220000
     0.801340000         0.919320000         0.187140000
     0.134520000         0.169260000         0.187180000
     0.134750000         0.669370000         0.187220000
     0.644030000         0.140130000         0.194880000
     0.645630000         0.641430000         0.194370000
     0.134780000         0.419290000         0.187190000
     0.134630000         0.919340000         0.187190000
     0.644430000         0.389960000         0.194760000
     0.644210000         0.890180000         0.194920000
     0.467900000         0.169280000         0.187180000
     0.467590000         0.668260000         0.187670000
     0.977290000         0.140260000         0.194870000
     0.977490000         0.640250000         0.194880000
     0.467990000         0.419390000         0.187260000
     0.467940000         0.919250000         0.187200000
     0.977370000         0.390300000         0.194850000
     0.977370000         0.890300000         0.194860000
     0.389460000         0.072560000         0.038470000
     0.389460000         0.572560000         0.038470000
     0.889460000         0.072560000         0.038470000
     0.889460000         0.572560000         0.038470000
     0.389460000         0.322560000         0.038470000
     0.389460000         0.822560000         0.038470000
     0.889460000         0.322560000         0.038470000
     0.889460000         0.822560000         0.038470000
     0.222790000         0.072560000         0.038470000
     0.222790000         0.572560000         0.038470000
     0.722790000         0.072560000         0.038470000
     0.722790000         0.572560000         0.038470000
     0.222790000         0.322560000         0.038470000
     0.222790000         0.822560000         0.038470000
     0.722790000         0.322560000         0.038470000
     0.722790000         0.822560000         0.038470000
     0.056120000         0.072560000         0.038470000
     0.056120000         0.572560000         0.038470000
     0.556120000         0.072560000         0.038470000
     0.556120000         0.572560000         0.038470000
     0.056120000         0.322560000         0.038470000
     0.056120000         0.822560000         0.038470000
     0.556120000         0.322560000         0.038470000
     0.556120000         0.822560000         0.038470000
     0.472790000         0.197560000         0.057350000
     0.472790000         0.697560000         0.057350000
     0.972790000         0.197560000         0.057350000
     0.972790000         0.697560000         0.057350000
     0.472790000         0.447560000         0.057350000
     0.472790000         0.947560000         0.057350000
     0.972790000         0.447560000         0.057350000
     0.972790000         0.947560000         0.057350000
     0.306120000         0.197560000         0.057350000
     0.306120000         0.697560000         0.057350000
     0.806120000         0.197560000         0.057350000
     0.806120000         0.697560000         0.057350000
     0.306120000         0.447560000         0.057350000
     0.306120000         0.947560000         0.057350000
     0.806120000         0.447560000         0.057350000
     0.806120000         0.947560000         0.057350000
     0.139450000         0.197560000         0.057350000
     0.139450000         0.697560000         0.057350000
     0.639450000         0.197560000         0.057350000
     0.639450000         0.697560000         0.057350000
     0.139450000         0.447560000         0.057350000
     0.139450000         0.947560000         0.057350000
     0.639450000         0.447560000         0.057350000
     0.639450000         0.947560000         0.057350000
     0.473240000         0.070170000         0.095920000
     0.473320000         0.570170000         0.095880000
     0.971930000         0.070250000         0.096000000
     0.972220000         0.570240000         0.095970000
     0.473340000         0.320190000         0.095920000
     0.473250000         0.820050000         0.095940000
     0.971950000         0.320210000         0.096000000
     0.972120000         0.820230000         0.096000000
     0.305280000         0.070250000         0.096000000
     0.305330000         0.570210000         0.095940000
     0.806490000         0.070150000         0.095930000
     0.806730000         0.570180000         0.095900000
     0.305350000         0.320210000         0.095990000
     0.305420000         0.820180000         0.096010000
     0.806580000         0.320160000         0.095930000
     0.806630000         0.820170000         0.095920000
     0.139900000         0.070180000         0.095920000
     0.140000000         0.570110000         0.095910000
     0.638530000         0.070240000         0.096010000
     0.638530000         0.570190000         0.096040000
     0.139900000         0.320130000         0.095920000
     0.139990000         0.820150000         0.095910000
     0.638670000         0.320290000         0.096010000
     0.638520000         0.820150000         0.096020000
     0.389290000         0.195250000         0.113480000
     0.389430000         0.695060000         0.113670000
     0.888920000         0.195140000         0.114280000
     0.889100000         0.695180000         0.114200000
     0.389450000         0.445140000         0.113460000
     0.389280000         0.945190000         0.113500000
     0.889050000         0.445100000         0.114270000
     0.889010000         0.945120000         0.114260000
     0.222330000         0.195150000         0.114280000
     0.222400000         0.695080000         0.114270000
     0.722550000         0.195240000         0.113500000
     0.722610000         0.695270000         0.113350000
     0.222420000         0.445070000         0.114260000
     0.222320000         0.945170000         0.114280000
     0.722650000         0.445220000         0.113560000
     0.722550000         0.945140000         0.113480000
     0.055910000         0.195220000         0.113480000
     0.056060000         0.695190000         0.113520000
     0.555630000         0.195180000         0.114320000
     0.555640000         0.694990000         0.114430000
     0.056000000         0.445140000         0.113510000
     0.055980000         0.945230000         0.113500000
     0.555800000         0.445210000         0.114370000
     0.555600000         0.945010000         0.114330000
     0.388870000         0.070300000         0.151500000
     0.388830000         0.570000000         0.151350000
     0.888320000         0.069900000         0.153120000
     0.888950000         0.569990000         0.152980000
     0.389040000         0.320350000         0.151520000
     0.389190000         0.820130000         0.151580000
     0.888320000         0.319910000         0.153150000
     0.888560000         0.819950000         0.153080000
     0.221640000         0.069950000         0.153130000
     0.221770000         0.569790000         0.153100000
     0.722170000         0.070120000         0.151510000
     0.722860000         0.570350000         0.151400000
     0.221680000         0.319900000         0.153120000
     0.221710000         0.819990000         0.153110000
     0.722160000         0.320380000         0.151550000
     0.722320000         0.820160000         0.151520000
     0.055520000         0.070250000         0.151510000
     0.055820000         0.570180000         0.151540000
     0.554970000         0.069820000         0.153150000
     0.554860000         0.569750000         0.153300000
     0.055580000         0.320190000         0.151530000
     0.055710000         0.820200000         0.151540000
     0.555080000         0.320080000         0.153170000
     0.554960000         0.819640000         0.153240000
     0.305280000         0.195960000         0.171460000
     0.305250000         0.696140000         0.171390000
     0.804310000         0.197150000         0.170620000
     0.804670000         0.697380000         0.170440000
     0.305420000         0.445960000         0.171440000
     0.305350000         0.945980000         0.171430000
     0.804480000         0.447200000         0.170690000
     0.804390000         0.947110000         0.170590000
     0.137670000         0.197090000         0.170650000
     0.137830000         0.697100000         0.170680000
     0.638620000         0.195770000         0.171470000
     0.638950000         0.695870000         0.171400000
     0.137860000         0.447060000         0.170660000
     0.137760000         0.947140000         0.170650000
     0.638740000         0.446200000         0.171730000
     0.638590000         0.945790000         0.171480000
     0.471060000         0.197100000         0.170650000
     0.471200000         0.696540000         0.171140000
     0.971890000         0.195920000         0.171470000
     0.972090000         0.695940000         0.171490000
     0.471280000         0.447200000         0.170760000
     0.471080000         0.947100000         0.170670000
     0.971990000         0.445890000         0.171510000
     0.972000000         0.945930000         0.171470000
     0.318200000         0.097130000         0.203930000
     0.318490000         0.596480000         0.204040000
     0.787610000         0.098240000         0.203820000
     0.789650000         0.598540000         0.203650000
     0.318250000         0.347170000         0.203900000
     0.318230000         0.847130000         0.203940000
     0.787780000         0.348070000         0.203950000
     0.787930000         0.848260000         0.203860000
     0.120820000         0.098130000         0.203860000
     0.120770000         0.597970000         0.203930000
     0.651600000         0.097000000         0.203950000
     0.654770000         0.598250000         0.203420000
     0.120780000         0.347990000         0.203900000
     0.120920000         0.848230000         0.203880000
     0.651880000         0.346860000         0.203920000
     0.651870000         0.847030000         0.203970000
     0.454190000         0.098130000         0.203860000
     0.451880000         0.598220000         0.203770000
     0.984810000         0.097110000         0.203940000
     0.985000000         0.597110000         0.203960000
     0.454420000         0.347930000         0.203960000
     0.454270000         0.848310000         0.203850000
     0.984810000         0.347150000         0.203960000
     0.984910000         0.847150000         0.203950000
     0.389460000         0.168020000         0.038470000
     0.389460000         0.668020000         0.038470000
     0.889460000         0.168020000         0.038470000
     0.889460000         0.668020000         0.038470000
     0.389460000         0.418020000         0.038470000
     0.389460000         0.918020000         0.038470000
     0.889460000         0.418020000         0.038470000
     0.889460000         0.918020000         0.038470000
     0.222790000         0.168020000         0.038470000
     0.222790000         0.668020000         0.038470000
     0.722790000         0.168020000         0.038470000
     0.722790000         0.668020000         0.038470000
     0.222790000         0.418020000         0.038470000
     0.222790000         0.918020000         0.038470000
     0.722790000         0.418020000         0.038470000
     0.722790000         0.918020000         0.038470000
     0.056120000         0.168020000         0.038470000
     0.056120000         0.668020000         0.038470000
     0.556120000         0.168020000         0.038470000
     0.556120000         0.668020000         0.038470000
     0.056120000         0.418020000         0.038470000
     0.056120000         0.918020000         0.038470000
     0.556120000         0.418020000         0.038470000
     0.556120000         0.918020000         0.038470000
     0.472790000         0.043020000         0.057350000
     0.472790000         0.543020000         0.057350000
     0.972790000         0.043020000         0.057350000
     0.972790000         0.543020000         0.057350000
     0.472790000         0.293020000         0.057350000
     0.472790000         0.793020000         0.057350000
     0.972790000         0.293020000         0.057350000
     0.972790000         0.793020000         0.057350000
     0.306120000         0.043020000         0.057350000
     0.306120000         0.543020000         0.057350000
     0.806120000         0.043020000         0.057350000
     0.806120000         0.543020000         0.057350000
     0.306120000         0.293020000         0.057350000
     0.306120000         0.793020000         0.057350000
     0.806120000         0.293020000         0.057350000
     0.806120000         0.793020000         0.057350000
     0.139450000         0.043020000         0.057350000
     0.139450000         0.543020000         0.057350000
     0.639450000         0.043020000         0.057350000
     0.639450000         0.543020000         0.057350000
     0.139450000         0.293020000         0.057350000
     0.139450000         0.793020000         0.057350000
     0.639450000         0.293020000         0.057350000
     0.639450000         0.793020000         0.057350000
     0.472980000         0.164500000         0.095390000
     0.472960000         0.664530000         0.095430000
     0.972020000         0.164660000         0.095290000
     0.972280000         0.664670000         0.095280000
     0.473150000         0.414550000         0.095400000
     0.472930000         0.914380000         0.095400000
     0.972200000         0.414620000         0.095280000
     0.972140000         0.914650000         0.095300000
     0.305400000         0.164660000         0.095290000
     0.305650000         0.664640000         0.095370000
     0.806260000         0.164490000         0.095390000
     0.806400000         0.664530000         0.095350000
     0.305540000         0.414650000         0.095300000
     0.305410000         0.914590000         0.095300000
     0.806340000         0.414490000         0.095390000
     0.806310000         0.914510000         0.095380000
     0.139650000         0.164520000         0.095390000
     0.139770000         0.664460000         0.095400000
     0.638620000         0.164640000         0.095290000
     0.638490000         0.664650000         0.095300000
     0.139760000         0.414490000         0.095390000
     0.139690000         0.914460000         0.095390000
     0.638730000         0.414730000         0.095310000
     0.638610000         0.914570000         0.095290000
     0.389420000         0.040530000         0.114010000
     0.389460000         0.540580000         0.113980000
     0.889190000         0.040690000         0.115000000
     0.889470000         0.540670000         0.114900000
     0.389520000         0.290640000         0.114020000
     0.389490000         0.790380000         0.114110000
     0.889250000         0.290700000         0.115020000
     0.889340000         0.790760000         0.114980000
     0.222540000         0.040720000         0.115020000
     0.222710000         0.540690000         0.115030000
     0.722660000         0.040500000         0.113990000
     0.722870000         0.540590000         0.113870000
     0.222590000         0.290740000         0.115020000
     0.222650000         0.790610000         0.115030000
     0.722800000         0.290610000         0.114020000
     0.722790000         0.790650000         0.113980000
     0.056120000         0.040610000         0.114010000
     0.056310000         0.540530000         0.114040000
     0.555800000         0.040580000         0.115040000
     0.555650000         0.540850000         0.115130000
     0.056140000         0.290600000         0.114020000
     0.056270000         0.790550000         0.114040000
     0.555880000         0.290780000         0.115040000
     0.555780000         0.790610000         0.115110000
     0.384300000         0.165230000         0.151080000
     0.384590000         0.664900000         0.151400000
     0.891530000         0.165140000         0.152160000
     0.891870000         0.665290000         0.152050000
     0.384550000         0.415440000         0.151110000
     0.384440000         0.915000000         0.151120000
     0.891720000         0.415130000         0.152130000
     0.891630000         0.915220000         0.152140000
     0.224860000         0.165210000         0.152170000
     0.225100000         0.665050000         0.152180000
     0.717640000         0.165030000         0.151070000
     0.717990000         0.665450000         0.150900000
     0.225070000         0.415180000         0.152160000
     0.224930000         0.915180000         0.152160000
     0.717630000         0.415320000         0.151150000
     0.717620000         0.915130000         0.151090000
     0.050980000         0.165210000         0.151090000
     0.051230000         0.665150000         0.151140000
     0.558120000         0.165030000         0.152170000
     0.557820000         0.665120000         0.152390000
     0.051190000         0.415190000         0.151140000
     0.051110000         0.915140000         0.151100000
     0.558210000         0.415400000         0.152260000
     0.558080000         0.914920000         0.152220000
     0.306190000         0.038370000         0.171520000
     0.306370000         0.538480000         0.171710000
     0.804090000         0.043830000         0.172510000
     0.804930000         0.543960000         0.172270000
     0.306290000         0.288450000         0.171500000
     0.306290000         0.788380000         0.171530000
     0.804090000         0.293860000         0.172470000
     0.804370000         0.794130000         0.172500000
     0.137420000         0.043870000         0.172530000
     0.137800000         0.543900000         0.172590000
     0.639470000         0.038210000         0.171530000
     0.639900000         0.538860000         0.171100000
     0.137530000         0.293850000         0.172560000
     0.137670000         0.793870000         0.172590000
     0.639470000         0.288120000         0.171410000
     0.639610000         0.788360000         0.171560000
     0.470670000         0.043770000         0.172540000
     0.470190000         0.544210000         0.172990000
     0.972890000         0.038360000         0.171520000
     0.973230000         0.538330000         0.171540000
     0.470780000         0.293870000         0.172560000
     0.470760000         0.793200000         0.172770000
     0.972930000         0.288360000         0.171540000
     0.973020000         0.788360000         0.171530000
